
                     X                      Cbar_L                 Cbar_total               Cbar_trap                   PEEQ                  PSI_Cbar_L                  S_11                     S_12                     S_22                     S_33                   S_Mises                   dPEEQ                eps_elastic_11           eps_elastic_12           eps_elastic_22           eps_elastic_33           eps_plastic_11           eps_plastic_12           eps_plastic_22           eps_plastic_33            eps_total_11             eps_total_12             eps_total_22             eps_total_33          hydrostatic_stress             rho_d                   theta_L                 theta_trap      

                   0.                      25.5879993               26.6385689                1.05057478             148.459641E-03           415.131561E-03            -4.6142621E+06            1.29582155E+06         366.590576E+06           180.842407E+06           321.480682E+06             1.45498216E-03        -844.220825E-06            16.8456898E-06            1.56861091E-03         361.247559E-06          -131.605621E-03           401.034943E-06           131.966858E-03          -361.247559E-06          -132.449814E-03           417.88443E-06            133.535477E-03             0.                     180.939545E+06             2.96929193E+15          27.7987919E-06           43.0356636E-03 
                 222.697861E-06            25.946682                26.8429241              896.241882E-03           125.254128E-03           406.933014E-03            20.6722565E+06         -794.393005E+03           376.598785E+06           198.469437E+06           308.244537E+06             1.25764704E-03        -759.241028E-06           -10.3271017E-06            1.55428135E-03         396.440613E-06          -110.451172E-03            -1.63891256E-03         110.847618E-03          -396.440613E-06          -111.210411E-03            -1.64923728E-03         112.401894E-03             0.                     198.580154E+06             2.5051825E+15           28.188467E-06            43.6122856E-03 
                 449.944275E-06            26.3053665               27.048008               742.640503E-03           102.195168E-03           398.734497E-03            41.2065125E+06           -3.08378458E+06         381.776855E+06           211.323654E+06           294.99115E+06              1.06098258E-03        -683.618103E-06           -40.089241E-06             1.53008854E-03         422.143372E-06           -89.4510422E-03           -3.49202752E-03          89.8731842E-03         -422.143372E-06           -90.1346664E-03           -3.53211236E-03          91.4032745E-03            0.                     211.435638E+06             2.04400349E+15          28.578146E-06            44.188858E-03  
                 680.234314E-06            26.5840321               27.2144279              630.396973E-03            86.0636139E-03          392.365051E-03            67.1512222E+06         -941.481018E+03           394.454376E+06           230.583832E+06           283.457611E+06           910.452087E-06          -601.80127E-06            -12.2392807E-06            1.52566922E-03         460.510681E-06           -75.1421738E-03         -895.262695E-06            75.6026917E-03         -460.510681E-06           -75.743988E-03          -907.501221E-06            77.1283646E-03            0.                     230.729782E+06             1.72137213E+15          28.880888E-06            44.6358376E-03 
                 913.962708E-06            26.8626976               27.38167                518.975159E-03            70.0284653E-03          385.995605E-03            79.8105698E+06            1.65782547E+06         394.123993E+06           236.74498E+06            272.218994E+06           760.514832E-06          -547.250793E-06            21.5517063E-06            1.49578679E-03         472.82312E-06            -60.9327316E-03            1.49348009E-03          61.4055519E-03         -472.82312E-06            -61.4799843E-03            1.5150336E-03           62.9013481E-03            0.                     236.893173E+06             1.40066898E+15          29.1836224E-06           45.0828209E-03 
                   1.15028024E-03          27.0323334               27.4789982              446.664551E-03            59.9933586E-03          382.118164E-03            97.6765137E+06            1.22432148E+06         400.8927E+06             248.984955E+06           262.601624E+06           660.519531E-06          -486.433899E-06            15.916172E-06             1.48447108E-03         497.070953E-06           -52.0369644E-03          819.753906E-06            52.5340309E-03         -497.070953E-06           -52.5233955E-03          835.669678E-06            54.0185089E-03            0.                     249.184723E+06             1.19996727E+15          29.367918E-06            45.3544846E-03 
                   1.38883662E-03          27.2019711               27.5761642              374.196655E-03            49.9137535E-03          378.240723E-03           112.63221E+06            439.165741E+03           404.912964E+06           258.459534E+06           253.123962E+06           560.286499E-06          -431.897736E-06             5.70915842E-06           1.4679271E-03          515.980042E-06           -43.111599E-03            56.4525833E-06           43.6275749E-03         -515.980042E-06           -43.5434914E-03           62.161705E-06            45.0955048E-03            0.                     258.668243E+06           998.375122E+12            29.5522118E-06           45.6261787E-03 
                   1.62890553E-03          27.3092327               27.6353321              326.099487E-03            43.3682785E-03          375.789032E-03           120.802841E+06           -66.0295029E+03          404.188965E+06           262.10498E+06            245.419922E+06           493.437286E-06          -395.426819E-06          -858.384766E-09             1.44658303E-03         523.03717E-06            -37.3926125E-03         -157.163254E-06            37.9156418E-03         -523.03717E-06            -37.7880325E-03         -158.022385E-06            39.3622284E-03            0.                     262.365601E+06           867.465698E+12            29.6687393E-06           45.797802E-03  
                   1.87043095E-03          27.4164925               27.6945534              278.05835E-03             36.8208122E-03          373.337341E-03           137.516098E+06          -640.5896E+03             412.036957E+06           274.326904E+06           237.745285E+06           427.424103E-06          -341.965393E-06            -8.32767296E-06           1.44242024E-03         547.305115E-06           -31.6443825E-03         -328.967468E-06            32.1916847E-03         -547.305115E-06           -31.9863415E-03         -337.294952E-06            33.6341057E-03            0.                     274.626617E+06           736.516296E+12            29.7852707E-06           45.9694443E-03 
                   2.11305165E-03          27.4912109               27.7339306              242.71405E-03             32.0717583E-03          371.629486E-03           141.931534E+06          -620.477478E+03           408.513245E+06           274.711273E+06           230.869598E+06           376.660553E-06          -315.179138E-06            -8.06621742E-06           1.41760194E-03         547.889465E-06           -27.5190029E-03         -230.37149E-06             28.0668926E-03         -547.889465E-06           -27.8341846E-03         -238.437668E-06            29.484499E-03             0.                     275.052032E+06           641.535095E+12            29.8664398E-06           46.0889435E-03 
                   2.35673785E-03          27.5659332               27.7725182              206.588791E-03            27.2173271E-03          369.921692E-03           154.732651E+06          -465.694763E+03           413.153656E+06           283.315186E+06           223.801498E+06           325.192596E-06          -271.0401E-06              -6.05402231E-06           1.40869665E-03         564.74646E-06            -23.2843952E-03          -75.4434204E-06           23.849144E-03          -564.74646E-06            -23.5554352E-03          -81.4973602E-06           25.2578411E-03            0.                     283.733826E+06           544.446411E+12            29.9476166E-06           46.2084274E-03 
                   2.60126972E-03          27.6067486               27.7879581              181.208466E-03            23.8460693E-03          368.988678E-03           159.412689E+06          -279.384491E+03           410.757874E+06           284.393341E+06           217.672958E+06           288.03952E-06           -245.663345E-06            -3.63199067E-06           1.38808036E-03         566.710754E-06           -20.3548832E-03          -39.8546104E-06           20.9215946E-03         -566.710754E-06           -20.6005459E-03          -43.4867096E-06           22.3096733E-03            0.                     284.854614E+06           477.021362E+12            29.9919643E-06           46.2736778E-03 
                   2.84655023E-03          27.6475639               27.8030071              155.442596E-03            20.4222965E-03          368.055695E-03           167.359116E+06           -68.9416275E+03          411.522247E+06           288.621918E+06           211.453094E+06           250.270523E-06          -213.420715E-06          -896.235168E-09             1.37363982E-03         574.787476E-06           -17.3741913E-03            5.55108976E-06          17.9489784E-03         -574.787476E-06           -17.5876122E-03            4.65480852E-06          19.3226166E-03            0.                     289.167755E+06           408.545868E+12            30.0363064E-06           46.338932E-03  
                   3.09246039E-03          27.6674423               27.8040695              136.626663E-03            17.9398384E-03          367.601379E-03           172.546097E+06           -29.5100002E+03          410.218048E+06           290.459534E+06           205.832016E+06           222.713409E-06          -188.285858E-06          -383.630341E-09             1.35658181E-03         578.151367E-06           -15.2154655E-03            1.69585109E-06          15.7936182E-03         -578.151367E-06           -15.4037523E-03            1.3121171E-06           17.1502018E-03            0.                     291.074554E+06           358.896759E+12            30.0579014E-06           46.370697E-03  
                   3.33891058E-03          27.6873207               27.8049946              117.674149E-03            15.4388189E-03          367.147003E-03           178.238754E+06            12.1758127E+03          409.387024E+06           292.764771E+06           200.183029E+06           194.845535E-06          -162.033951E-06           158.285721E-09             1.34042978E-03         582.385376E-06           -13.0399208E-03         -155.843735E-09            13.6223049E-03         -582.385376E-06           -13.2019539E-03            2.46654963E-09          14.9627352E-03            0.                     293.463562E+06           308.876404E+12            30.0794926E-06           46.4024658E-03 
                   3.58583403E-03          27.6920624               27.7955227              103.458542E-03            13.5716124E-03          367.038605E-03           182.656311E+06            -5.84200001E+03         407.754852E+06           294.007111E+06           194.944717E+06           173.687988E-06          -139.361374E-06           -75.9428101E-09            1.32377887E-03         584.419006E-06           -11.4166222E-03         -978.063354E-09            12.0010414E-03         -584.419006E-06           -11.5559845E-03           -1.05399525E-06          13.3248196E-03            0.                     294.806091E+06           271.532257E+12            30.0846481E-06           46.4100494E-03 
                   3.83316731E-03          27.696806                27.7859917               89.1871872E-03           11.6968355E-03          366.930176E-03           187.198685E+06           -26.0037804E+03          406.236755E+06           295.365875E+06           189.697311E+06           152.432388E-06          -116.410507E-06          -338.046906E-09             1.30733657E-03         586.676392E-06            -9.78663731E-03          -1.77729821E-06          10.373313E-03          -586.676392E-06            -9.90304661E-03          -2.11533189E-06          11.6806498E-03            0.                     296.26709E+06            234.036713E+12            30.0897999E-06           46.4176331E-03 
                   4.08085442E-03          27.6893101               27.7677174               78.4086609E-03           10.2851496E-03          367.101654E-03           190.569839E+06           -16.1966877E+03          403.960632E+06           295.724121E+06           184.808289E+06           136.173355E-06           -96.6780014E-06         -210.554398E-09             1.2903626E-03          586.824951E-06            -8.55966568E-03        -713.160278E-09             9.1464901E-03         -586.824951E-06            -8.65634346E-03        -923.726501E-09            10.4368534E-03            0.                     296.751556E+06           205.803024E+12            30.0816574E-06           46.4056473E-03 
                   4.32885456E-03          27.6818123               27.7494164               67.605217E-03             8.87006378E-03         367.272919E-03           194.0177E+06              -5.34912491E+03         401.759796E+06           296.156067E+06           179.918259E+06           119.884979E-06           -76.7852554E-06          -69.5390549E-09            1.27353847E-03         587.114014E-06            -7.32961369E-03         589.03241E-09              7.91672802E-03        -587.114014E-06            -7.40639877E-03         519.474243E-09             9.19026661E-03           0.                     297.311157E+06           177.501266E+12            30.0735073E-06           46.3936615E-03 
                   4.57712269E-03          27.6650219               27.7243996               59.3789749E-03            7.79415035E-03         367.656708E-03           196.509598E+06            -8.24487495E+03         398.947388E+06           295.753571E+06           175.327362E+06           107.310265E-06           -59.5035172E-06         -107.181221E-09             1.25634217E-03         585.582458E-06            -6.39493418E-03        -162.43576E-09              6.98051691E-03        -585.582458E-06            -6.45443821E-03        -269.617889E-09             8.23685932E-03           0.                     297.07016E+06            155.983017E+12            30.0552692E-06           46.3668251E-03 
                   4.82563305E-03          27.6482315               27.6993599               51.12994E-03              6.71519327E-03         368.040497E-03           199.030197E+06            -9.43421841E+03         396.157623E+06           295.377502E+06           170.73175E+06             94.7031708E-06          -42.1516762E-06         -122.643311E-09             1.23917663E-03         584.105835E-06            -5.457582E-03          -565.247314E-09             6.04168797E-03        -584.105835E-06            -5.49973392E-03        -687.887207E-09             7.28086472E-03           0.                     296.855103E+06           134.403885E+12            30.0370312E-06           46.3399925E-03 
                   5.07434464E-03          27.6234245               27.668272                44.850811E-03             5.89432573E-03         368.607544E-03           200.693909E+06            -6.18462515E+03         392.840088E+06           294.21701E+06            166.423035E+06            84.8675842E-06          -27.1161709E-06          -80.4006958E-09            1.22183418E-03         580.783997E-06            -4.74513769E-03        -263.124084E-09             5.32592297E-03        -580.783997E-06            -4.77225447E-03        -343.516144E-09             6.54775667E-03           0.                     295.916992E+06           117.986519E+12            30.0100803E-06           46.3003311E-03 
                   5.323246E-03            27.5986137               27.6371727               38.5572891E-03            5.07154131E-03         369.17453E-03            202.366745E+06            -2.66110158E+03         389.527191E+06           293.067902E+06           162.111267E+06            75.0110931E-06          -12.0589781E-06          -34.5951347E-09            1.20448387E-03         577.498657E-06            -4.0309968E-03           62.3902016E-09            4.60849619E-03        -577.498657E-06            -4.04305553E-03          27.7955208E-09            5.8129797E-03            0.                     294.987244E+06           101.530823E+12            29.9831257E-06           46.2606773E-03 
                   5.57230425E-03          27.5668697               27.6006584               33.7908478E-03            4.44822884E-03         369.900177E-03           203.270203E+06            -3.80423427E+03         385.782623E+06           291.125305E+06           158.09697E+06             67.2388E-06             989.088745E-09           -49.4555931E-09            1.18731976E-03         572.047302E-06            -3.49111772E-03        -183.96167E-09              4.06316519E-03        -572.047302E-06            -3.49012899E-03        -233.416367E-09             5.25048494E-03           0.                     293.392731E+06            89.0645828E+12           29.9486389E-06           46.2099152E-03 
                   5.82149982E-03          27.5351238               27.5641441               29.0202045E-03            3.82435417E-03         370.625793E-03           204.176376E+06            -3.75040627E+03         382.042999E+06           289.191986E+06           154.086807E+06            59.4592018E-06           14.0293655E-06          -48.7550583E-09            1.17016232E-03         566.631104E-06            -2.95072889E-03        -266.589478E-09             3.51735997E-03        -566.631104E-06            -2.93669987E-03        -315.342712E-09             4.68752241E-03           0.                     291.803711E+06            76.5870819E+12           29.9141502E-06           46.1591644E-03 
                   6.07081509E-03          27.4971085               27.5225544               25.4473324E-03            3.35673475E-03         371.49472E-03            204.411636E+06            -2.08724999E+03         378.001221E+06           286.389465E+06           150.410126E+06            53.229496E-06            25.4722099E-06          -27.1342068E-09            1.15380418E-03         558.328125E-06            -2.54759073E-03        -167.299042E-09             3.10591888E-03        -558.328125E-06            -2.52211857E-03        -194.433594E-09             4.25972319E-03           0.                     289.600769E+06            67.2346954E+12           29.8728485E-06           46.098362E-03  
                   6.3202343E-03           27.4590874               27.480957                21.8655624E-03            2.88794017E-03         372.363678E-03           204.642227E+06             1.37157035E+03         373.950684E+06           283.576904E+06           146.736923E+06            46.9794617E-06           36.9199028E-06           17.8301888E-09            1.13742459E-03         549.995056E-06            -2.14344931E-03          20.6733246E-09            2.69344449E-03        -549.995056E-06            -2.10652924E-03          38.5031166E-09            3.83086872E-03           0.                     287.389893E+06            57.8588028E+12           29.8315449E-06           46.037571E-03  
                   6.56974697E-03          27.4151535               27.4343796               19.2241993E-03            2.54184532E-03         373.36795E-03            204.273651E+06             2.93150401E+03         369.697144E+06           279.771362E+06           143.442474E+06            41.8974838E-06           47.1655006E-06           38.1098175E-09            1.12241817E-03         537.900635E-06            -1.84806979E-03          55.2654457E-09            2.38597059E-03        -537.900635E-06            -1.80090427E-03          93.3732758E-09            3.50838876E-03           0.                     284.58075E+06             50.9369049E+12           29.7838116E-06           45.9672852E-03 
                   6.8193264E-03           27.3712177               27.3877945               16.5792847E-03            2.19528055E-03         374.372253E-03           203.90892E+06              1.83116996E+03         365.448303E+06           275.956238E+06           140.168854E+06            36.8019447E-06           57.4376793E-06           23.8053417E-09            1.10744405E-03         525.745361E-06            -1.55231404E-03         -61.8108559E-09            2.07805967E-03        -525.745361E-06            -1.49487674E-03         -38.0059624E-09            3.18550324E-03           0.                     281.771179E+06            44.0056114E+12           29.7360802E-06           45.8969955E-03 
                   7.06898069E-03          27.3230801               27.3377495               14.6658869E-03            1.94419575E-03         375.472443E-03           203.007294E+06             4.28584385E+03         361.064056E+06           271.165833E+06           137.312088E+06            32.6821899E-06           66.6918106E-06           55.7156448E-09            1.09406054E-03         509.722107E-06            -1.34195983E-03         -85.7053223E-09            1.85168183E-03        -509.722107E-06            -1.27526808E-03         -29.9896793E-09            2.94574261E-03           0.                     278.412415E+06            38.9839096E+12           29.6837845E-06           45.8199806E-03 
                   7.31868649E-03          27.2749462               27.2876987               12.751833E-03             1.69302666E-03         376.572693E-03           202.103882E+06             7.09231234E+03         356.681396E+06           266.364838E+06           134.500534E+06            28.5603199E-06           75.9499512E-06           92.1991196E-09            1.08070409E-03         493.646271E-06            -1.13156545E-03         -45.85672E-09              1.62521172E-03        -493.646271E-06            -1.05561554E-03          46.3405724E-09            2.70591569E-03           0.                     275.050018E+06            33.9605331E+12           29.6314907E-06           45.7429466E-03 
                   7.56844139E-03          27.2264576               27.2378521               11.3952332E-03            1.514642E-03           377.681061E-03           200.763367E+06            10.8804064E+03          352.253815E+06           260.911072E+06           132.118515E+06            25.3491211E-06           84.069519E-06           141.445068E-09             1.06875765E-03         475.02948E-06           -986.328491E-06           -69.3189545E-09            1.46135783E-03        -475.02948E-06           -902.258911E-06            72.126564E-09             2.53011537E-03           0.                     271.309448E+06            30.3928394E+12           29.5788136E-06           45.6653328E-03 
                   7.81823301E-03          27.1779633               27.1879997               10.0354013E-03            1.33583462E-03         378.789368E-03           199.414124E+06            14.9021015E+03          347.814972E+06           255.447311E+06           129.7966E+06              22.1389885E-06           92.1772919E-06          193.727371E-09             1.05678248E-03         456.392883E-06          -840.744873E-06           -84.8285675E-09            1.29713786E-03        -456.392883E-06          -748.567627E-06           108.901527E-09             2.35392022E-03           0.                     267.558807E+06            26.8166924E+12           29.5261345E-06           45.5877113E-03 
                   8.06805897E-03          27.1342964               27.1433792                9.08348942E-03           1.21029735E-03         379.787567E-03           197.763199E+06            15.3739061E+03          343.457977E+06           249.829559E+06           127.875252E+06            19.7671585E-06           98.8847427E-06          199.861465E-09             1.04590058E-03         437.316132E-06          -742.279724E-06          -110.685509E-09             1.17959571E-03        -437.316132E-06          -643.39502E-06             89.1741333E-09            2.22549629E-03           0.                     263.683594E+06            24.3059425E+12           29.4786911E-06           45.5177917E-03 
                   8.31791019E-03          27.0906277               27.0987587                8.12977982E-03           1.0845331E-03          380.785706E-03           196.113937E+06            14.709219E+03           339.105042E+06           244.227127E+06           126.022125E+06            17.401041E-06           105.571381E-06           191.219666E-09             1.03501368E-03         418.30722E-06           -643.584656E-06          -156.511307E-09             1.06189179E-03        -418.30722E-06           -538.013245E-06            34.7081375E-09            2.09690547E-03           0.                     259.815399E+06            21.7906551E+12           29.4312477E-06           45.4478683E-03 
                   8.56778049E-03          27.0557671               27.0632248                7.45803928E-03         995.606995E-06           381.582489E-03           194.321762E+06            14.6976252E+03          334.974396E+06           238.893524E+06           124.501686E+06            15.7239676E-06          110.806915E-06           191.07074E-09              1.02504921E-03         400.523376E-06          -576.711731E-06          -141.7202E-09             977.235046E-06          -400.523376E-06          -465.904785E-06            49.3473625E-09            2.00228405E-03           0.                     256.063232E+06            20.0121365E+12           29.3933773E-06           45.3920326E-03 
                   8.81767273E-03          27.0209103               27.0276909                6.78368664E-03         906.343201E-06           382.379364E-03           192.534943E+06            14.5674067E+03          330.849274E+06           233.573151E+06           123.039909E+06            14.046814E-06           116.041275E-06           189.377258E-09             1.01508415E-03         382.789337E-06          -509.515808E-06          -132.406296E-09           892.305115E-06          -382.789337E-06          -393.474487E-06            56.9680176E-09            1.90738916E-03           0.                     252.319107E+06            18.2268639E+12           29.355505E-06            45.3361931E-03 
                   9.06758022E-03          26.9960823               27.0023804                6.29652071E-03         841.566895E-06           382.946777E-03           190.746887E+06            11.3276253E+03          327.045929E+06           228.735703E+06           121.830795E+06            12.8727274E-06          120.061966E-06           147.259918E-09             1.00600576E-03         366.989319E-06          -462.849182E-06          -134.506088E-09           829.838562E-06          -366.989319E-06          -342.78717E-06             12.7483873E-09            1.8358444E-03            0.                     248.84285E+06             16.9313393E+12           29.3285332E-06           45.2964325E-03 
                   9.31749821E-03          26.9712563               26.9770622                5.80762577E-03         776.567139E-06           383.514221E-03           188.964752E+06             9.88906288E+03         323.249451E+06           223.908737E+06           120.669044E+06            11.6966782E-06          124.086395E-06           128.558884E-09           996.937256E-06           351.22229E-06           -415.965149E-06          -112.637283E-09           767.1875E-06            -351.22229E-06           -291.878754E-06            15.9216146E-09            1.76412487E-03           0.                     245.374298E+06            15.6313448E+12           29.3015652E-06           45.2566605E-03 
                   9.5674324E-03           26.9554501               26.9608917                5.44005156E-03         727.474365E-06           383.875458E-03           187.277222E+06             7.90199995E+03         319.805267E+06           219.599411E+06           119.686317E+06            10.8559713E-06          127.278999E-06           102.726974E-09           988.711609E-06           337.373291E-06          -382.017548E-06          -110.765541E-09           719.390808E-06          -337.373291E-06          -254.73851E-06             -8.03993225E-09           1.70810246E-03           0.                     242.227295E+06            14.6494875E+12           29.2843933E-06           45.2313423E-03 
                   9.81737328E-03          26.9396477               26.9447174                5.07068491E-03         678.145508E-06           384.236755E-03           185.591324E+06             6.40006256E+03         316.359772E+06           215.287888E+06           118.738785E+06            10.0107317E-06          130.485245E-06            83.2023926E-09          980.479919E-06           323.512695E-06          -347.868378E-06          -103.854744E-09           671.381104E-06          -323.512695E-06          -217.383118E-06           -20.6537151E-09            1.65186095E-03           0.                     239.079636E+06            13.6629095E+12           29.2672195E-06           45.2060165E-03 
                  10.0673218E-03           26.9308567               26.9356365                4.78092384E-03         639.291565E-06           384.437653E-03           184.045517E+06             5.14725018E+03         313.247101E+06           211.443268E+06           117.914612E+06             9.38355541E-06         133.192078E-06            66.9142532E-09          973.00238E-06            311.277344E-06          -322.00531E-06            -94.1900024E-09          633.282715E-06          -311.277344E-06          -188.813217E-06           -27.2748356E-09            1.60628498E-03           0.                     236.245285E+06            12.8858309E+12           29.2576714E-06           45.1919365E-03 
                  10.317277E-03            26.9220657               26.9265537                4.49014664E-03         600.303406E-06           384.63855E-03            182.502228E+06             3.26953125E+03         310.134796E+06           207.597519E+06           117.119026E+06             8.75346279E-06         135.912827E-06            42.5037575E-09          965.524109E-06           299.032104E-06          -296.028778E-06           -92.3056488E-09          595.060913E-06          -299.032104E-06          -160.115936E-06           -49.799839E-09             1.56058514E-03           0.                     233.411469E+06            12.1060686E+12           29.2481232E-06           45.1778488E-03 
                  10.5672407E-03           26.9182644               26.922514                 4.25276709E-03         568.373657E-06           384.725555E-03           181.113388E+06             1.9169687E+03          307.313782E+06           204.142578E+06           116.407005E+06             8.2661562E-06          138.38237E-06             24.9206085E-09          958.685181E-06           288.072144E-06          -275.508728E-06           -89.3000946E-09          563.580933E-06          -288.072144E-06          -137.126343E-06           -64.3804016E-09            1.52226603E-03           0.                     230.856628E+06            11.467473E+12            29.2439899E-06           45.1717491E-03 
                  10.8172035E-03           26.9144554               26.9184685                4.01485252E-03         536.373169E-06           384.812531E-03           179.725616E+06             1.40812504E+03         304.492798E+06           200.686661E+06           115.71933E+06              7.77724743E-06         140.858963E-06            18.3044891E-09          951.845459E-06           277.105682E-06          -254.92952E-06            -77.3416061E-09          532.035217E-06          -277.105682E-06          -114.070526E-06           -59.0353012E-09            1.48388064E-03           0.                     228.301697E+06            10.8274641E+12           29.2398529E-06           45.1656494E-03 
                  11.0671778E-03           26.9138947               26.9177094                3.81396103E-03         509.292908E-06           384.825287E-03           178.4944E+06             643.09375                301.922058E+06           197.55246E+06            115.088242E+06             7.38457584E-06         143.260193E-06             8.360075E-09           945.539978E-06           267.137573E-06          -238.083878E-06           -76.0419464E-09          505.221436E-06          -267.137573E-06           -94.8236694E-06          -67.6818619E-09            1.45076144E-03           0.                     225.989609E+06            10.2858582E+12           29.2392464E-06           45.1647568E-03 
                  11.3171558E-03           26.9133377               26.9169464                3.61260581E-03         482.150757E-06           384.838074E-03           177.262527E+06          -415.6875                 299.348877E+06           194.414673E+06           114.47805E+06              6.99056196E-06         145.667343E-06            -5.40342188E-09         939.22821E-06            257.156433E-06          -221.192108E-06           -77.6490173E-09          478.348511E-06          -257.156433E-06           -75.5247879E-06          -83.05233E-09              1.41757679E-03           0.                     223.675323E+06             9.74301338E+12          29.2386398E-06           45.1638641E-03 
                  11.5671415E-03           26.914732                26.9181709                3.43838072E-03         458.634552E-06           384.806213E-03           176.177856E+06          -767.34375                296.988342E+06           191.544006E+06           113.907433E+06             6.66486168E-06         148.090805E-06            -9.97533798E-09         933.358887E-06           247.970688E-06          -207.011627E-06           -72.9064636E-09          454.98233E-06           -247.970688E-06           -58.9208183E-06          -82.8817978E-09            1.38834119E-03           0.                     221.570068E+06             9.27269268E+12          29.2401562E-06           45.1660957E-03 
                  11.8171272E-03           26.9161243               26.9193878                3.26392007E-03         435.086945E-06           384.774261E-03           175.093597E+06            -1.54878902E+03         294.627197E+06           188.671982E+06           113.355988E+06             6.33850336E-06         150.519348E-06           -20.1349621E-09          927.48761E-06            238.778641E-06          -192.80719E-06            -72.5083313E-09          431.585815E-06          -238.778641E-06           -42.2878685E-06          -92.6445389E-09            1.3590734E-03            0.                     219.464249E+06             8.80173969E+12          29.2416744E-06           45.1683273E-03 
                  12.0671167E-03           26.9185696               26.9216824                3.11029983E-03         414.338898E-06           384.718353E-03           174.14357E+06             -1.84820318E+03         292.447662E+06           186.025452E+06           112.833321E+06             6.06240892E-06         153.008102E-06           -24.0270309E-09          921.984741E-06           230.240494E-06          -180.670532E-06           -68.6191025E-09          410.911041E-06          -230.240494E-06           -27.6624279E-06          -92.6470413E-09            1.33289587E-03           0.                     217.538879E+06             8.38677597E+12          29.2443295E-06           45.1722527E-03 
                  12.3171101E-03           26.9210205               26.9239769                2.95655251E-03         393.573761E-06           384.662506E-03           173.193451E+06            -1.99926567E+03         290.267487E+06           183.377991E+06           112.328575E+06             5.78594589E-06         155.499023E-06           -25.9902878E-09          916.480408E-06           221.698502E-06          -168.521332E-06           -63.6043777E-09          390.219849E-06          -221.698502E-06           -13.0222797E-06          -89.5944366E-09            1.30670023E-03           0.                     215.612946E+06             7.97147608E+12          29.2469883E-06           45.1761665E-03 
                  12.5671101E-03           26.923912                26.9267292                2.81955647E-03         375.068146E-06           384.596405E-03           172.365326E+06            -2.20146871E+03         288.246033E+06           180.926971E+06           111.845909E+06             5.54790354E-06         158.067078E-06           -28.619297E-09           911.291626E-06           213.717911E-06          -158.018921E-06           -60.6607933E-09          371.736786E-06          -213.717911E-06            48.1598206E-09          -89.2800903E-09            1.28302836E-03           0.                     213.8461E+06               7.60136414E+12          29.2501259E-06           45.1807976E-03 
                  12.817111E-03            26.9267998               26.9294815                2.6824615E-03          356.549286E-06           384.530365E-03           171.536896E+06            -2.5E+03                286.223602E+06           178.474762E+06           111.379936E+06             5.30958366E-06         160.636887E-06           -32.5003395E-09          906.100464E-06           205.733124E-06          -147.50795E-06            -58.7192497E-09          353.241028E-06          -205.733124E-06            13.1289577E-06          -91.2195892E-09            1.2593416E-03            0.                     212.07843E+06              7.23098564E+12          29.2532654E-06           45.1854324E-03 
                  13.0671186E-03           26.9297638               26.9323215                2.55961847E-03         339.957642E-06           384.462585E-03           170.817215E+06            -2.67945313E+03         284.343903E+06           176.200974E+06           110.932831E+06             5.10209417E-06         163.268845E-06           -34.832962E-09           901.192078E-06           198.263153E-06          -138.376663E-06           -56.3219376E-09          336.639801E-06          -198.263153E-06            24.8922005E-06          -91.155014E-09             1.23783207E-03           0.                     210.45401E+06              6.89915323E+12          29.2564869E-06           45.1901817E-03 
                  13.3171272E-03           26.9327278               26.9351692                2.43671751E-03         323.358185E-06           384.394836E-03           170.097412E+06            -2.83393741E+03         282.463562E+06           173.926376E+06           110.501419E+06             4.89443302E-06         165.90213E-06            -36.8411293E-09          896.282227E-06           190.790314E-06          -129.240829E-06           -53.9288292E-09          320.031128E-06          -190.790314E-06            36.6613121E-06          -90.7705307E-09            1.21631336E-03           0.                     208.829132E+06             6.56716394E+12          29.2597084E-06           45.194931E-03  
                  13.5671349E-03           26.9355526               26.9378796                2.32634187E-03         308.454712E-06           384.330292E-03           169.474503E+06            -2.90782809E+03         280.715088E+06           171.81842E+06            110.087364E+06             4.71232319E-06         168.572235E-06           -37.8020096E-09          891.636108E-06           183.807663E-06          -121.292183E-06           -50.9870682E-09          305.099854E-06          -183.807663E-06            47.280056E-06           -88.7885132E-09            1.19673598E-03           0.                     207.335999E+06             6.26909542E+12          29.2627735E-06           45.1994591E-03 
                  13.8171501E-03           26.9383755               26.9405899                2.2159133E-03          293.54422E-06            384.265778E-03           168.851486E+06            -3.07645702E+03         278.966034E+06           169.709732E+06           109.687935E+06             4.5300684E-06          171.243652E-06           -39.9938393E-09          886.988342E-06           176.822449E-06          -113.339066E-06           -49.0253181E-09          290.16153E-06           -176.822449E-06            57.9045601E-06          -89.0196381E-09            1.17714989E-03           0.                     205.842438E+06             5.97088385E+12          29.2658405E-06           45.2039833E-03 
                  14.0671654E-03           26.9409466               26.9430637                2.11684132E-03         280.171814E-06           384.207001E-03           168.314529E+06            -2.99385929E+03         277.34259E+06            167.761322E+06           109.30571E+06              4.36971378E-06         173.916779E-06           -38.9201202E-09          882.599121E-06           170.320969E-06          -106.432404E-06           -44.8111458E-09          276.753418E-06          -170.320969E-06            67.484375E-06           -83.7314911E-09            1.15935254E-03           0.                     204.472824E+06             5.70343637E+12          29.2686367E-06           45.2080994E-03 
                  14.3171806E-03           26.9435158               26.9455376                2.01776385E-03         266.798645E-06           384.148193E-03           167.77771E+06             -2.98532414E+03         275.719177E+06           165.813049E+06           108.937119E+06             4.20932436E-06         176.590027E-06           -38.8092728E-09          878.209961E-06           163.819885E-06           -99.5246582E-06          -41.3272972E-09          263.344543E-06          -163.819885E-06            77.0653763E-06          -80.1363754E-09            1.14155447E-03           0.                     203.103302E+06             5.43597221E+12          29.2714291E-06           45.2122154E-03 
                  14.5671997E-03           26.9457912               26.9477196                1.9292289E-03          254.852737E-06           384.096252E-03           167.317062E+06            -2.87800789E+03         274.219055E+06           164.022812E+06           108.586617E+06             4.06830597E-06         179.222427E-06           -37.4139938E-09          874.085632E-06           157.809967E-06           -93.5526962E-06          -38.1485863E-09          251.362717E-06          -157.809967E-06            85.6697311E-06          -75.5628662E-09            1.12544811E-03           0.                     201.853012E+06             5.19705582E+12          29.2738991E-06           45.2158546E-03 
                  14.8172226E-03           26.948061                26.9499016                1.84066987E-03         242.903702E-06           384.044342E-03           166.856415E+06            -2.69768739E+03         272.718689E+06           162.232346E+06           108.248398E+06             3.92722249E-06         181.855682E-06           -35.0696602E-09          869.960327E-06           151.798996E-06           -87.5786438E-06          -34.5606842E-09          239.377625E-06          -151.798996E-06            94.2770004E-06          -69.6302261E-09            1.10933793E-03           0.                     200.602493E+06             4.95807457E+12          29.2763653E-06           45.2194977E-03 
                  15.0672493E-03           26.9500256               26.951786                 1.76200128E-03         232.292816E-06           383.999481E-03           166.463806E+06            -3.0072813E+03          271.341827E+06           160.599838E+06           107.92955E+06              3.80357218E-06         184.406509E-06           -39.0946312E-09          866.113831E-06           146.290695E-06           -82.4448547E-06          -34.1059952E-09          228.735535E-06          -146.290695E-06           101.961647E-06           -73.2006836E-09            1.09484935E-03           0.                     199.468506E+06             4.74585629E+12          29.2784977E-06           45.2226486E-03 
                  15.317276E-03            26.9519882               26.9536705                1.6833061E-03          221.678314E-06           383.95459E-03            166.071365E+06            -3.20835948E+03         269.964752E+06           158.967041E+06           107.621567E+06             3.6798625E-06          186.95903E-06            -41.7088318E-09          862.266296E-06           140.78096E-06            -77.3088531E-06          -33.1256027E-09          218.089844E-06          -140.78096E-06            109.650162E-06           -74.8343048E-09            1.08035612E-03           0.                     198.334396E+06             4.53356552E+12          29.2806282E-06           45.2257919E-03 
                  15.5673027E-03           26.9536629               26.9552746                1.61406934E-03         212.342453E-06           383.916321E-03           165.739639E+06            -2.72885156E+03         268.71463E+06            157.495178E+06           107.334953E+06             3.5722959E-06          189.38353E-06            -35.4750671E-09          858.721069E-06           135.794312E-06           -72.9362183E-06          -28.5988331E-09          208.730515E-06          -135.794312E-06           116.447319E-06           -64.0739059E-09            1.06745148E-03           0.                     197.316483E+06             4.34684706E+12          29.2824497E-06           45.2284737E-03 
                  15.8173332E-03           26.9553337               26.9568787                1.54485548E-03         203.009613E-06           383.878113E-03           165.406876E+06            -2.56599998E+03         267.46405E+06            156.023102E+06           107.057938E+06             3.46477032E-06         191.803711E-06           -33.3579941E-09          855.175232E-06           130.809174E-06           -68.5653687E-06          -25.9148598E-09          199.374542E-06          -130.809174E-06           123.23835E-06            -59.2726822E-09            1.05454957E-03           0.                     196.298035E+06             4.16019297E+12          29.2842674E-06           45.2311554E-03 
                  16.0673637E-03           26.956728                26.9582119                1.48457992E-03         194.884293E-06           383.846283E-03           165.129074E+06            -2.829211E+03           266.343079E+06           154.712936E+06           106.803703E+06             3.37195349E-06         194.061264E-06           -36.7797394E-09          851.952515E-06           126.356499E-06           -64.8782883E-06          -25.5709553E-09          191.234772E-06          -126.356499E-06           129.182999E-06           -62.3506355E-09            1.04318726E-03           0.                     195.39505E+06              3.99768591E+12          29.2857819E-06           45.2333832E-03 
                  16.3173981E-03           26.9581184               26.9595413                1.4242965E-03          186.757904E-06           383.814453E-03           164.851181E+06            -2.72821093E+03         265.221954E+06           153.402649E+06           106.557327E+06             3.27910185E-06         196.318985E-06           -35.4667397E-09          848.729248E-06           121.903435E-06           -61.1906204E-06          -23.3437729E-09          183.094025E-06          -121.903435E-06           135.128357E-06           -58.8105736E-09            1.0318234E-03            0.                     194.491959E+06             3.83515763E+12          29.2872925E-06           45.235611E-03  
                  16.5674305E-03           26.9592781               26.9606514                1.37279677E-03         179.817047E-06           383.788055E-03           164.621521E+06            -2.82964849E+03         264.237183E+06           152.260132E+06           106.336601E+06             3.20050049E-06         198.361572E-06           -36.7855339E-09          845.863342E-06           118.012558E-06           -58.134922E-06           -22.779007E-09           176.147491E-06          -118.012558E-06           140.226669E-06           -59.5643997E-09            1.02201104E-03           0.                     193.706253E+06             3.69634128E+12          29.2885513E-06           45.2374725E-03 
                  16.8174686E-03           26.960434                26.9617558                1.32128286E-03         172.874268E-06           383.761566E-03           164.390656E+06            -2.94951963E+03         263.251312E+06           151.116669E+06           106.122124E+06             3.1218822E-06          200.401337E-06           -38.3436127E-09          842.995605E-06           114.120392E-06           -55.0787239E-06          -22.2248173E-09          169.199142E-06          -114.120392E-06           145.322617E-06           -60.5683975E-09            1.01219475E-03           0.                     192.91954E+06              3.55748558E+12          29.2898083E-06           45.2393265E-03 
                  17.067503E-03            26.9613533               26.9626331                1.27806985E-03         167.051453E-06           383.740509E-03           164.205917E+06            -2.99185944E+03         262.405853E+06           150.142044E+06           105.934372E+06             3.05634356E-06         202.207779E-06           -38.8941994E-09          840.507263E-06           110.792564E-06           -52.5848808E-06          -21.2008896E-09          163.377441E-06          -110.792564E-06           149.622879E-06           -60.0952072E-09            1.00388491E-03           0.                     192.251297E+06             3.44102979E+12          29.2908039E-06           45.240799E-03  
                  17.3175449E-03           26.9622765               26.9635105                1.23483133E-03         161.225189E-06           383.719543E-03           164.021149E+06            -3.10773444E+03         261.559998E+06           149.166901E+06           105.751297E+06             2.99074697E-06         204.015411E-06           -40.4006653E-09          838.017822E-06           107.46283E-06            -50.0896072E-06          -20.7420216E-09          157.552429E-06          -107.46283E-06            153.925842E-06           -61.142601E-09           995.570312E-06             0.                     191.582672E+06             3.32450318E+12          29.2918053E-06           45.2422638E-03 
                  17.5675831E-03           26.963007                26.9642086                1.19980145E-03         156.505646E-06           383.702728E-03           163.875168E+06            -3.6453476E+03          260.859375E+06           148.364365E+06           105.597466E+06             2.93793583E-06         205.540268E-06           -47.3894463E-09          835.937561E-06           104.719994E-06           -48.1192093E-06          -21.8937817E-09          152.839203E-06          -104.719994E-06           157.421082E-06           -69.283371E-09           988.776794E-06             0.                     191.032959E+06             3.23011279E+12          29.2926044E-06           45.2434425E-03 
                  17.8176193E-03           26.9637413               26.9649067                1.16475224E-03         151.783463E-06           383.685944E-03           163.731415E+06            -4.51390028E+03         260.160217E+06           147.562943E+06           105.446869E+06             2.8850944E-06          207.072281E-06           -58.680542E-09           833.85968E-06            101.977234E-06           -46.145668E-06           -24.2216072E-09          148.122894E-06          -101.977234E-06           160.92662E-06            -82.9022903E-09          981.982605E-06             0.                     190.484894E+06             3.13566923E+12          29.2933979E-06           45.2446136E-03 
                  18.0676575E-03           26.9642887               26.9654255                1.13765383E-03         148.132935E-06           383.673492E-03           163.622574E+06            -3.72524214E+03         259.609802E+06           146.935455E+06           105.326897E+06             2.84445524E-06         208.294952E-06           -48.4281464E-09          832.211853E-06            99.8288422E-06          -44.6514511E-06          -20.4795761E-09          144.480286E-06           -99.8288422E-06          163.643509E-06           -68.9076385E-09          976.692078E-06             0.                     190.055939E+06             3.06265879E+12          29.293993E-06            45.2454987E-03 
                  18.3176994E-03           26.9648361               26.9659462                1.11054635E-03         144.481232E-06           383.66095E-03            163.5159E+06              -3.64978814E+03         259.060791E+06           146.309036E+06           105.209007E+06             2.80380225E-06         209.52475E-06            -47.4471169E-09          830.566589E-06            97.6801758E-06          -43.1563683E-06          -19.5768185E-09          140.836563E-06           -97.6801758E-06          166.368362E-06           -67.0239334E-09          971.403076E-06             0.                     189.628571E+06             2.9896245E+12           29.2945881E-06           45.2463684E-03 
                  18.5677452E-03           26.9652119               26.9663048                1.09117496E-03         141.871902E-06           383.652374E-03           163.440475E+06            -4.94998837E+03         258.662537E+06           145.85672E+06            105.122734E+06             2.77482224E-06         210.423401E-06           -64.3499069E-09          829.366943E-06            96.1291504E-06          -42.1059494E-06          -22.9122467E-09          138.235107E-06           -96.1291504E-06          168.317459E-06           -87.2622681E-09          967.60199E-06              0.                     189.319916E+06             2.93743849E+12          29.2950001E-06           45.2469788E-03 
                  18.8177853E-03           26.9655876               26.9666595                1.07178831E-03         139.260483E-06           383.643768E-03           163.36763E+06             -5.99247694E+03         258.266083E+06           145.405807E+06           105.037582E+06             2.74579859E-06         211.330322E-06           -77.9021759E-09          828.170349E-06            94.5784454E-06          -41.0526772E-06          -25.4225292E-09          135.631119E-06           -94.5784454E-06          170.277634E-06          -103.324669E-09           963.801514E-06             0.                     189.013184E+06             2.88521028E+12          29.2954044E-06           45.2475777E-03 
                  19.0678272E-03           26.9658203               26.9668827                1.06026304E-03         137.708038E-06           383.638367E-03           163.325958E+06            -3.01541591E+03         258.028748E+06           145.136307E+06           104.98613E+06              2.72861505E-06         211.882263E-06           -39.200428E-09           827.450256E-06            93.6496201E-06          -40.4346161E-06          -13.9630384E-09          134.084244E-06           -93.6496201E-06          171.447632E-06           -53.1634331E-09          961.53418E-06              0.                     188.830338E+06             2.85416079E+12          29.29566E-06             45.2479515E-03 
                  19.317873E-03            26.9660587               26.9671059                1.04879332E-03         136.163116E-06           383.633057E-03           163.279266E+06            -1.28454041E+03         257.788666E+06           144.865143E+06           104.935295E+06             2.71153569E-06         212.415649E-06           -16.6989937E-09          826.726929E-06            92.7236557E-06          -39.821804E-06            -6.96477604E-09         132.545471E-06           -92.7236557E-06          172.593857E-06           -23.6638069E-09          959.2724E-06               0.                     188.644394E+06             2.82326221E+12          29.2959156E-06           45.2483292E-03 
                  19.567915E-03            26.966135                26.9671822                1.04491711E-03         135.641006E-06           383.631256E-03           163.266922E+06          -370.792236               257.709656E+06           144.775192E+06           104.917992E+06             2.70573664E-06         212.607391E-06            -4.82026482E-09         826.485107E-06            92.411087E-06           -39.6139526E-06           -2.4943521E-09          132.02504E-06            -92.411087E-06           172.993423E-06            -7.31464291E-09         958.510193E-06             0.                     188.583923E+06             2.81281948E+12          29.2959995E-06           45.2484512E-03 
                  19.817955E-03            26.9662151               26.9672508                1.04106176E-03         135.121719E-06           383.629456E-03           163.254028E+06             2.35096383E+03         257.630737E+06           144.685501E+06           104.900871E+06             2.69996285E-06         212.795715E-06            30.5625324E-09          826.244446E-06            92.100441E-06           -39.4069519E-06            8.49603939E-09         131.507401E-06           -92.100441E-06           173.388779E-06            39.0585785E-09          957.752014E-06             0.                     188.523438E+06             2.80243444E+12          29.2960854E-06           45.2485771E-03 




