
                     X                      Cbar_L                 Cbar_total               Cbar_trap                   PEEQ                  PSI_Cbar_L                  S_11                     S_12                     S_22                     S_33                   S_Mises                   dPEEQ                eps_elastic_11           eps_elastic_12           eps_elastic_22           eps_elastic_33           eps_plastic_11           eps_plastic_12           eps_plastic_22           eps_plastic_33            eps_total_11             eps_total_12             eps_total_22             eps_total_33          hydrostatic_stress             rho_d                   theta_L                 theta_trap      

                   0.                       0.                       0.                       0.                       0.                       0.                       0.                       0.                       0.                       0.                       0.                       0.                       0.                       0.                       0.                       0.                       0.                       0.                       0.                       0.                       0.                       0.                       0.                       0.                       0.                       0.                       0.                       0.            
                   1.E+03                  27.                      27.0000343               37.1929207E-06            0.                     382.857178E-03           -34.293499E+03          -287.852264E+03           124.844185E+06            37.4429665E+06          110.992455E+06             0.                    -243.602203E-06            -3.7420795E-06          568.108032E-06             0.                       0.                       0.                       0.                       0.                    -243.602203E-06            -3.7420795E-06          568.108032E-06             0.                      54.0842896E+06           99.9999924E+09           29.3327942E-06           45.3027191E-03 
                   2.E+03                  26.9171982               26.9240704                6.87297201E-03         921.285095E-06           384.749817E-03            -1.28507853E+06         220.421753E+03           144.937088E+06            60.845108E+06           127.107895E+06           921.285095E-06          -315.098694E-06             2.8654685E-06          635.345459E-06            88.7475357E-06         -767.99292E-06            -21.8775463E-06          856.740356E-06           -88.7475357E-06           -1.08309162E-03         -19.0120983E-06            1.49208581E-03           0.                      68.1656952E+06           18.5257034E+12           29.2428398E-06           45.170063E-03  
                   3.E+03                  26.827383                26.8429947               15.609849E-03             2.10514593E-03         386.802673E-03            -1.11780608E+06         391.578491E+03           164.365738E+06            76.2683182E+06          143.414597E+06             1.18386066E-03        -366.5401E-06               5.09050035E-06         709.102905E-06           136.469757E-06            -1.79523039E-03         -27.2048569E-06            1.93170011E-03        -136.469757E-06            -2.16177058E-03         -22.114357E-06             2.64080334E-03           0.                      79.838768E+06            42.2029266E+12           29.1452599E-06           45.0261383E-03 
                   4.E+03                  26.7543831               26.780983                26.6018658E-03            3.5999999E-03          388.471222E-03            -1.30114901E+06         518.548767E+03           180.012589E+06            86.6156921E+06          157.048782E+06             1.49485362E-03        -406.448151E-06             6.74112368E-06         772.091187E-06           165.011353E-06            -3.10874724E-03         -34.1686516E-06            3.27375817E-03        -165.011353E-06            -3.51519537E-03         -27.4275951E-06            4.0458498E-03            0.                      88.4423828E+06           72.0999985E+12           29.065958E-06            44.9091263E-03 
                   5.E+03                  26.6895943               26.72966                 40.0645142E-03            5.43640852E-03         389.952087E-03            -1.403988E+06           641.640991E+03           193.89888E+06             94.6272812E+06          169.148651E+06             1.83640909E-03        -439.809113E-06             8.341362E-06           829.659424E-06           184.393967E-06            -4.73110962E-03         -35.541832E-06             4.91550398E-03        -184.393967E-06            -5.17091894E-03         -27.2006435E-06            5.74516392E-03           0.                      95.7073822E+06          108.828186E+12            28.9955673E-06           44.8052635E-03 
                   6.E+03                  26.6331978               26.686739                53.5412445E-03            7.28085661E-03         391.241241E-03            -1.49187005E+06         727.015503E+03           204.693176E+06           100.44825E+06            178.569626E+06             1.84444749E-03        -465.171448E-06             9.45120335E-06         875.031372E-06           197.439224E-06            -6.36370373E-03         -36.2457619E-06            6.56114388E-03        -197.439224E-06            -6.82887602E-03         -26.7944412E-06            7.43617392E-03           0.                     101.216515E+06           145.717148E+12            28.9342937E-06           44.7148285E-03 
                   7.E+03                  26.5843391               26.6496296               65.2873611E-03            8.89430428E-03         392.357941E-03            -1.55743206E+06         785.847473E+03           212.554688E+06           104.560722E+06           185.433899E+06             1.61344981E-03        -483.460266E-06            10.2160187E-06          908.268616E-06           206.307709E-06            -7.79347038E-03         -33.9070129E-06            7.99977684E-03        -206.307709E-06            -8.27692986E-03         -23.6907501E-06            8.90804672E-03           0.                     105.185997E+06           177.98613E+12             28.881218E-06            44.6364708E-03 
                   8.E+03                  26.5361061               26.6123924               76.2882614E-03           10.4112425E-03          393.460449E-03            -1.61427796E+06         839.127991E+03           219.008652E+06           107.880966E+06           191.072342E+06             1.5169363E-03         -498.405792E-06            10.9086685E-06          935.643311E-06           213.313248E-06            -9.13851643E-03         -30.1825352E-06            9.35182953E-03        -213.313248E-06            -9.63692188E-03         -19.2739544E-06           10.2874727E-03            0.                     108.425117E+06           208.324829E+12            28.8288193E-06           44.5590973E-03 
                   9.E+03                  26.494894                26.5818634               86.9733505E-03           11.8872766E-03          394.402435E-03            -1.66780007E+06         887.581482E+03           224.626144E+06           110.743744E+06           195.983719E+06             1.476035E-03          -511.39389E-06             11.5385695E-06          959.516663E-06           219.281281E-06           -10.4477386E-03          -25.848217E-06            10.6670198E-03         -219.281281E-06           -10.9591341E-03          -14.3099461E-06           11.6265345E-03            0.                     111.234016E+06           237.845535E+12            28.7840405E-06           44.4929771E-03 
                  10.E+03                  26.4578705               26.555397                97.5246429E-03           13.3473473E-03          395.248627E-03            -1.72121799E+06         929.017517E+03           229.671646E+06           113.299767E+06           200.399704E+06             1.46007109E-03        -523.063293E-06            12.0772238E-06          980.990601E-06           224.573181E-06           -11.7430811E-03          -21.2439327E-06           11.9676542E-03         -224.573181E-06           -12.2661428E-03           -9.16712475E-06          12.9486418E-03            0.                     113.750069E+06           267.046997E+12            28.7438202E-06           44.4335861E-03 
                  11.E+03                  26.4238396               26.5318718              108.031898E-03            14.803668E-03           396.026672E-03            -1.77491391E+06         964.184021E+03           234.290344E+06           115.629829E+06           204.446274E+06             1.45632172E-03        -533.754883E-06            12.5344229E-06            1.00066936E-03         229.376053E-06           -13.0352793E-03          -16.5334797E-06           13.264658E-03          -229.376053E-06           -13.5690365E-03           -3.9994483E-06           14.2653265E-03            0.                     116.048431E+06           296.173431E+12            28.7068481E-06           44.3789597E-03 
                  12.E+03                  26.3921394               26.5106792              118.538277E-03            16.2620468E-03          396.75116E-03             -1.82831895E+06         994.650513E+03           238.570312E+06           117.782417E+06           208.199295E+06             1.45837855E-03        -543.670654E-06            12.9304676E-06            1.01892042E-03         233.799103E-06           -14.3294506E-03          -11.7602758E-06           14.5632496E-03         -233.799103E-06           -14.8731232E-03            1.17067242E-06          15.5821705E-03            0.                     118.174805E+06           325.341003E+12            28.6724091E-06           44.3280945E-03 
                  13.E+03                  26.3623886               26.4914551              129.065399E-03            17.7253513E-03          397.431061E-03            -1.88108706E+06           1.02140951E+06         242.570557E+06           119.789505E+06           211.709457E+06             1.46330559E-03        -552.945618E-06            13.2783527E-06            1.03599024E-03         237.913254E-06           -15.6281013E-03           -6.9395175E-06           15.8660116E-03         -237.913254E-06           -16.1810455E-03            6.33869791E-06          16.9020023E-03            0.                     120.159645E+06           354.607056E+12            28.6400928E-06           44.2803421E-03 
                  14.E+03                  26.3343239               26.4739456              139.620895E-03            19.1945229E-03          398.072662E-03            -1.93312407E+06           1.04514003E+06         246.332275E+06           121.673157E+06           215.012421E+06             1.46916902E-03        -561.673889E-06            13.5868111E-06            1.05205154E-03         241.766968E-06           -16.9320335E-03           -2.09407878E-06          17.1738033E-03         -241.766968E-06           -17.4937057E-03           11.4926367E-06           18.2258549E-03            0.                     122.024101E+06           383.990448E+12            28.6096001E-06           44.2352905E-03 
                  15.E+03                  26.3077469               26.4579506              150.207275E-03            20.6697998E-03          398.680206E-03            -1.984496E+06             1.06609905E+06         249.88681E+06            123.449959E+06           218.135345E+06             1.47527409E-03        -569.927673E-06            13.859273E-06             1.06723559E-03         245.396286E-06           -18.241457E-03             2.80130196E-06          18.4868546E-03         -245.396286E-06           -18.8113861E-03           16.6601963E-06           19.5540905E-03            0.                     123.784096E+06           413.495941E+12            28.5807209E-06           44.1926117E-03 
                  16.E+03                  26.2824955               26.4433174              160.824173E-03            22.1510372E-03          399.257233E-03            -2.03521299E+06           1.08481002E+06         253.258591E+06           125.132843E+06           221.099426E+06             1.48124003E-03        -577.763184E-06            14.1025524E-06            1.08164632E-03         248.829178E-06           -19.5562344E-03            7.7384758E-06           19.8050632E-03         -248.829178E-06           -20.133997E-03            21.8411446E-06           20.8867054E-03            0.                     125.452072E+06           443.120728E+12            28.5532913E-06           44.1520882E-03 
                  17.E+03                  26.2584534               26.429924               171.468826E-03            23.6377697E-03          399.806824E-03            -2.0852809E+06            1.10159349E+06         256.467194E+06           126.732124E+06           223.921616E+06             1.48673332E-03        -585.225342E-06            14.3206997E-06            1.09536552E-03         252.087708E-06           -20.8759251E-03           12.709177E-06            21.1280136E-03         -252.087708E-06           -21.4611549E-03           27.0293102E-06           22.2233791E-03            0.                     127.03801E+06            472.855469E+12            28.5271759E-06           44.1134834E-03 
                  18.E+03                  26.235508                26.4176445              182.138947E-03            25.1296043E-03          400.33136E-03             -2.13463211E+06           1.11675096E+06         259.529327E+06           128.25647E+06            226.616302E+06             1.49183536E-03        -592.351746E-06            14.5177326E-06            1.10846353E-03         255.19043E-06            -22.2001858E-03           17.7235336E-06           22.4553776E-03         -255.19043E-06            -22.7925377E-03           32.2412262E-06           23.5638428E-03            0.                     128.550385E+06           502.692108E+12            28.502243E-06            44.0766335E-03 
                  19.E+03                  26.2135601               26.406395               192.831329E-03            26.62603E-03            400.832947E-03            -2.18333602E+06           1.13050544E+06         262.458557E+06           129.713074E+06           229.195358E+06             1.49642241E-03        -599.174194E-06            14.6965542E-06            1.12099802E-03         258.152496E-06           -23.5285492E-03           22.7697906E-06           23.7866974E-03         -258.152496E-06           -24.1277199E-03           37.4659462E-06           24.9076939E-03            0.                     129.996063E+06           532.620483E+12            28.4784031E-06           44.0413895E-03 
                  20.E+03                  26.1975784               26.4011517              203.577347E-03            28.1265163E-03          401.198334E-03            -2.23141694E+06           1.14304745E+06         265.266724E+06           131.107956E+06           231.668991E+06             1.50048316E-03        -605.718994E-06            14.8596163E-06            1.13301861E-03         260.986877E-06           -24.8605309E-03           27.8402576E-06           25.1215172E-03         -260.986877E-06           -25.4662495E-03           42.7009087E-06           26.2545357E-03            0.                     131.381073E+06           562.630127E+12            28.4610367E-06           44.0157166E-03 
                  21.E+03                  26.175251                26.3895416              214.291718E-03            29.6306362E-03          401.708618E-03            -2.27871895E+06           1.15450454E+06         267.964081E+06           132.446609E+06           234.046021E+06             1.50412667E-03        -612.009521E-06            15.0085764E-06            1.14456892E-03         263.704865E-06           -26.1957607E-03           32.9427414E-06           26.4594727E-03         -263.704865E-06           -26.8077774E-03           47.951004E-06            27.604044E-03             0.                     132.710678E+06           592.71283E+12             28.4367809E-06           43.9798622E-03 
                  22.E+03                  26.1548767               26.3799019              225.027557E-03            31.138073E-03           402.174255E-03            -2.32539606E+06           1.16500998E+06         270.559814E+06           133.733597E+06           236.334457E+06             1.50743926E-03        -618.067017E-06            15.145153E-06             1.15568686E-03         266.316376E-06           -27.5339489E-03           38.0659485E-06           27.8002701E-03         -266.316376E-06           -28.1520157E-03           53.2115822E-06           28.9559555E-03            0.                     133.989365E+06           622.861694E+12            28.4146538E-06           43.9471397E-03 
                  23.E+03                  26.1357365               26.3715153              235.778214E-03            32.6483841E-03          402.611786E-03            -2.37140083E+06           1.17462194E+06         273.061554E+06           134.972992E+06           238.540909E+06             1.51030481E-03        -623.908813E-06            15.2700958E-06            1.1664052E-03          268.829742E-06           -28.8746834E-03           43.205452E-06            29.1435127E-03         -268.829742E-06           -29.4985962E-03           58.4763489E-06           30.3099174E-03            0.                     135.221069E+06           653.067505E+12            28.3938522E-06           43.9163895E-03 
                  24.E+03                  26.1221237               26.3687                 246.579559E-03            34.1613503E-03          402.922943E-03            -2.41679001E+06           1.18352246E+06         275.47641E+06            136.168427E+06           240.671585E+06             1.51296747E-03        -629.551208E-06            15.385726E-06             1.17675459E-03         271.252594E-06           -30.2177811E-03           48.3524055E-06           30.4890308E-03         -271.252594E-06           -30.8473339E-03           63.7385559E-06           31.6657829E-03            0.                     136.409332E+06           683.326965E+12            28.3790684E-06           43.8945198E-03 
                  25.E+03                  26.1026611               26.3600006              257.335266E-03            35.6764984E-03          403.367706E-03            -2.46141982E+06           1.19174051E+06         277.810486E+06           137.322983E+06           242.731628E+06             1.51514733E-03        -635.007263E-06            15.4926167E-06            1.18675995E-03         273.591553E-06           -31.562809E-03            53.5137939E-06           31.8364048E-03         -273.591553E-06           -32.1978188E-03           69.0056458E-06           33.0231628E-03            0.                     137.557327E+06           713.630127E+12            28.3579254E-06           43.863266E-03  
                  26.E+03                  26.084938                26.3530426              268.105865E-03            37.1936378E-03          403.772888E-03            -2.50543594E+06           1.19937646E+06         280.069214E+06           138.439636E+06           244.725891E+06             1.51714063E-03        -640.290588E-06            15.5918894E-06            1.19644475E-03         275.852509E-06           -32.9096031E-03           58.6751862E-06           33.1854515E-03         -275.852509E-06           -33.5498886E-03           74.2664566E-06           34.3818932E-03            0.                     138.667831E+06           743.972778E+12            28.3386688E-06           43.834774E-03  
                  27.E+03                  26.068264                26.3471451              278.88678E-03             38.7127457E-03          404.153992E-03            -2.54882503E+06           1.20647502E+06         282.258087E+06           139.520981E+06           246.659088E+06             1.51910257E-03        -645.41272E-06             15.6841927E-06            1.205832E-03           278.041107E-06           -34.2581215E-03           63.8340111E-06           34.5361595E-03         -278.041107E-06           -34.9035339E-03           79.5174866E-06           35.7419968E-03            0.                     139.743393E+06           774.354736E+12            28.3205509E-06           43.807991E-03  
                  28.E+03                  26.0523605               26.3420296              289.671478E-03            40.2331047E-03          404.517517E-03            -2.59152102E+06           1.21303952E+06         284.380829E+06           140.569092E+06           248.534454E+06             1.5203706E-03         -650.382324E-06            15.7695036E-06            1.21493757E-03         280.16156E-06            -35.6077576E-03           68.9984283E-06           35.8879204E-03         -280.16156E-06            -36.2581406E-03           84.7680511E-06           37.1028519E-03            0.                     140.786102E+06           804.762146E+12            28.3032722E-06           43.7824402E-03 
                  29.E+03                  26.0370827               26.3375416              300.460236E-03            41.7548752E-03          404.86676E-03             -2.63361788E+06           1.21916151E+06         286.441925E+06           141.586227E+06           250.355896E+06             1.52175736E-03        -655.210266E-06            15.849102E-06             1.22378063E-03         282.218567E-06           -36.9586143E-03           74.1560898E-06           37.2408218E-03         -282.218567E-06           -37.6138153E-03           90.0046463E-06           38.4646072E-03            0.                     141.798203E+06           835.197449E+12            28.2866783E-06           43.7578888E-03 
                  30.E+03                  26.0223579               26.3336105              311.253113E-03            43.2780495E-03          405.203339E-03            -2.67516398E+06           1.22486591E+06         288.445374E+06           142.574341E+06           252.126892E+06             1.52317452E-03        -659.905396E-06            15.9232807E-06            1.23237801E-03         284.216248E-06           -38.3106956E-03           79.2976913E-06           38.5949097E-03         -284.216248E-06           -38.9706116E-03           95.2202835E-06           39.8272896E-03            0.                     142.781494E+06           865.660706E+12            28.2706814E-06           43.7342224E-03 
                  31.E+03                  26.0081329               26.3301773              322.044952E-03            44.8018913E-03          405.528473E-03            -2.71604204E+06           1.23015201E+06         290.393799E+06           143.534882E+06           253.849716E+06             1.52383792E-03        -664.473389E-06            15.9919949E-06            1.24074113E-03         286.157501E-06           -39.6633644E-03           84.4406967E-06           39.9495163E-03         -286.157501E-06           -40.3278275E-03          100.433128E-06            41.190258E-03             0.                     143.737564E+06           896.137573E+12            28.255228E-06            43.7113647E-03 
                  32.E+03                  25.9943771               26.3272133              332.838074E-03            46.3267212E-03          405.842865E-03            -2.75638986E+06           1.23510051E+06         292.290985E+06           144.46962E+06            255.527649E+06             1.52484286E-03        -668.922913E-06            16.0563221E-06            1.24888515E-03         288.046204E-06           -41.0168877E-03           89.566452E-06            41.3049393E-03         -288.046204E-06           -41.6858101E-03          105.622452E-06            42.5538254E-03            0.                     144.66806E+06            926.634521E+12            28.2402821E-06           43.6892586E-03 
                  33.E+03                  25.9850578               26.3287315              343.677399E-03            47.8522072E-03          406.055878E-03            -2.79614806E+06           1.23972952E+06         294.139313E+06           145.379944E+06           257.162811E+06             1.52548468E-03        -673.259644E-06            16.1164722E-06            1.25682104E-03         289.884888E-06           -42.3709717E-03           94.6840744E-06           42.6608543E-03         -289.884888E-06           -43.0442314E-03          110.800148E-06            43.9176826E-03            0.                     145.574356E+06           957.144165E+12            28.2301579E-06           43.6742897E-03 
                  34.E+03                  25.9704361               26.3248844              354.450897E-03            49.3784676E-03          406.390106E-03            -2.83539891E+06           1.24403799E+06         295.941742E+06           146.267227E+06           258.757751E+06             1.5262568E-03         -677.490479E-06            16.1725121E-06            1.26456118E-03         291.676666E-06           -43.725708E-03            99.7833023E-06           44.0173836E-03         -291.676666E-06           -44.4031982E-03          115.953613E-06            45.2819481E-03            0.                     146.457855E+06           987.669189E+12            28.2142715E-06           43.6507759E-03 
                  35.E+03                  25.9571323               26.3223629              365.229797E-03            50.9047852E-03          406.694122E-03            -2.87402105E+06           1.24805892E+06         297.700043E+06           147.132477E+06           260.313904E+06             1.5263226E-03         -681.618896E-06            16.2248116E-06            1.27211237E-03         293.42337E-06            -45.0804825E-03          104.882286E-06            45.373909E-03          -293.42337E-06            -45.7621078E-03          121.107559E-06            46.6460228E-03            0.                     147.319519E+06             1.01819563E+15          28.1998215E-06           43.6294022E-03 
                  36.E+03                  25.9445953               26.3206081              376.012512E-03            52.4317322E-03          406.980743E-03            -2.91220403E+06           1.25183547E+06         299.416931E+06           147.97699E+06            261.833832E+06             1.52694345E-03        -685.652039E-06            16.2738571E-06            1.27948749E-03         295.128052E-06           -46.4357872E-03          109.954735E-06            46.7309151E-03         -295.128052E-06           -47.1214409E-03          126.226112E-06            48.0104065E-03            0.                     148.160614E+06             1.04873466E+15          28.1861973E-06           43.6092415E-03 
                  37.E+03                  25.9325905               26.3193836              386.793091E-03            53.9587669E-03          407.255127E-03            -2.94984388E+06           1.25537002E+06         301.094269E+06           148.801804E+06           263.319031E+06             1.52702999E-03        -689.593384E-06            16.319828E-06             1.28669333E-03         296.792236E-06           -47.7911453E-03          115.016708E-06            48.0879326E-03         -296.792236E-06           -48.4807281E-03          131.334183E-06            49.3746262E-03            0.                     148.982056E+06             1.07927525E+15          28.1731548E-06           43.5899506E-03 
                  38.E+03                  25.9210091               26.3185844              397.573822E-03            55.4863358E-03          407.519775E-03            -2.98706698E+06           1.25869298E+06         302.734283E+06           149.60788E+06            264.771576E+06             1.52756763E-03        -693.448547E-06            16.3629875E-06            1.2937398E-03          298.418579E-06           -49.1469421E-03          120.046318E-06            49.4453545E-03         -298.418579E-06           -49.8403854E-03          136.409195E-06            50.7390938E-03            0.                     149.785034E+06             1.10982645E+15          28.1605759E-06           43.571331E-03  
                  39.E+03                  25.9098053               26.3181572              408.350098E-03            57.0137787E-03          407.775879E-03            -3.02375102E+06           1.26179743E+06         304.338196E+06           150.39595E+06            266.192352E+06             1.52744234E-03        -697.219849E-06            16.4033413E-06            1.3006326E-03          300.008179E-06           -50.502594E-03           125.069412E-06            50.8026161E-03         -300.008179E-06           -51.1998215E-03          141.471619E-06            52.1032372E-03            0.                     150.570114E+06             1.14037538E+15          28.1484013E-06           43.553318E-03  
                  40.E+03                  25.8989487               26.3180676              419.120087E-03            58.5408669E-03          408.024139E-03            -3.05988407E+06           1.264714E+06           305.907532E+06           151.16684E+06            267.582733E+06             1.52709341E-03        -700.91095E-06             16.4412937E-06            1.30737698E-03         301.562775E-06           -51.8579178E-03          130.086212E-06            52.1594849E-03         -301.562775E-06           -52.5588379E-03          146.527084E-06            53.4668579E-03            0.                     151.338165E+06             1.17091727E+15          28.1366062E-06           43.5358658E-03 
                  41.E+03                  25.8884087               26.3182907              429.888031E-03            60.0682106E-03          408.265045E-03            -3.09565401E+06           1.26747298E+06         307.444397E+06           151.921478E+06           268.944702E+06             1.52734423E-03        -704.527222E-06            16.4771614E-06            1.3139832E-03          303.084503E-06           -53.2134399E-03          135.069473E-06            53.5165215E-03         -303.084503E-06           -53.9179649E-03          151.547607E-06            54.830513E-03             0.                     152.090073E+06             1.20146418E+15          28.1251602E-06           43.5189171E-03 
                  42.E+03                  25.8817635               26.3224716              440.704437E-03            61.5952148E-03          408.416809E-03            -3.13091493E+06           1.27006853E+06         308.949799E+06           152.660522E+06           270.2789E+06               1.52700913E-03        -708.070129E-06            16.5108871E-06            1.32045472E-03         304.574219E-06           -54.568634E-03           140.042038E-06            54.8732071E-03         -304.574219E-06           -55.2766991E-03          156.552521E-06            56.1936493E-03            0.                     152.826508E+06             1.23200452E+15          28.1179428E-06           43.5082359E-03 
                  43.E+03                  25.8738289               26.325325               451.495514E-03            63.1221695E-03          408.598236E-03            -3.16579199E+06           1.27250099E+06         310.425354E+06           153.384644E+06           271.586945E+06             1.52695382E-03        -711.543884E-06            16.5425148E-06            1.32679844E-03         306.033813E-06           -55.9237366E-03          144.988297E-06            56.2297745E-03         -306.033813E-06           -56.6352844E-03          161.532318E-06            57.5565681E-03            0.                     153.54808E+06              1.26254344E+15          28.1093197E-06           43.4954758E-03 
                  44.E+03                  25.8654442               26.3277149              462.272614E-03            64.6490173E-03          408.789948E-03            -3.20024395E+06           1.27477741E+06         311.872253E+06           154.094467E+06           272.869812E+06             1.52684474E-03        -714.951233E-06            16.5721207E-06            1.33302009E-03         307.464355E-06           -57.278717E-03           149.916397E-06            57.5861702E-03         -307.464355E-06           -57.9936714E-03          166.486481E-06            58.9192009E-03            0.                     154.255493E+06             1.29308021E+15          28.1002083E-06           43.4819908E-03 
                  45.E+03                  25.8569374               26.3299751              473.036713E-03            66.1752243E-03          408.984375E-03            -3.23419809E+06           1.27692151E+06         313.29129E+06            154.790497E+06           274.128143E+06             1.52621019E-03        -718.293762E-06            16.5999966E-06            1.33912218E-03         308.866791E-06           -58.6331062E-03          154.828659E-06            58.9419746E-03         -308.866791E-06           -59.3513985E-03          171.428085E-06            60.2810974E-03            0.                     154.949188E+06             1.32360423E+15          28.0909634E-06           43.4683113E-03 
                  46.E+03                  25.8484764               26.3322639              483.789795E-03            67.7007217E-03          409.177673E-03            -3.26768398E+06           1.27895749E+06         314.683594E+06           155.473251E+06           275.362885E+06             1.52549541E-03        -721.57373E-06             16.6264362E-06            1.34511006E-03         310.242279E-06           -59.9868355E-03          159.740448E-06            60.2970734E-03         -310.242279E-06           -60.708416E-03           176.367813E-06            61.6421852E-03            0.                     155.629715E+06             1.35411477E+15          28.0817795E-06           43.4547195E-03 
                  47.E+03                  25.8401337               26.3346729              494.53717E-03             69.2260895E-03          409.36853E-03             -3.30086493E+06           1.28087091E+06         316.050659E+06           156.143387E+06           276.575531E+06             1.52536547E-03        -724.795532E-06            16.6513119E-06            1.35098934E-03         311.592377E-06           -61.3404083E-03          164.620117E-06            61.6520042E-03         -311.592377E-06           -62.0652008E-03          181.269363E-06            63.0029869E-03            0.                     156.29776E+06              1.38462186E+15          28.0727119E-06           43.441288E-03  
                  48.E+03                  25.8285255               26.333744               505.217316E-03            70.7508774E-03          409.633575E-03            -3.33362412E+06           1.28266001E+06         317.393158E+06           156.801376E+06           277.766541E+06             1.5247916E-03         -727.959839E-06            16.6745892E-06            1.35676396E-03         312.917572E-06           -62.6934547E-03          169.481613E-06            63.0063629E-03         -312.917572E-06           -63.4214134E-03          186.156937E-06            64.3631134E-03            0.                     156.953629E+06             1.41511774E+15          28.0601063E-06           43.4226379E-03 
                  49.E+03                  25.8219414               26.3379097              515.97052E-03             72.2747498E-03          409.784302E-03            -3.36590695E+06           1.28436804E+06         318.71167E+06            157.447479E+06           278.93631E+06              1.52387297E-03        -731.068237E-06            16.6967812E-06            1.36243594E-03         314.218781E-06           -64.0456314E-03          174.335205E-06            64.3598633E-03         -314.218781E-06           -64.7767029E-03          191.031967E-06            65.7222977E-03            0.                     157.597794E+06             1.44559503E+15          28.052948E-06            43.4120369E-03 
                  50.E+03                  25.8113956               26.3380394              526.644836E-03            73.7983246E-03          410.025238E-03            -3.39793992E+06           1.28594053E+06         320.00769E+06            158.082413E+06           280.086426E+06             1.52356946E-03        -734.124634E-06            16.7172184E-06            1.36801159E-03         315.497223E-06           -65.397522E-03           179.153397E-06            65.713028E-03          -315.497223E-06           -66.1316376E-03          195.87204E-06             67.0810318E-03            0.                     158.230682E+06             1.47606647E+15          28.0414925E-06           43.3950882E-03 
                  51.E+03                  25.8054581               26.3428516              537.391296E-03            75.3212128E-03          410.16098E-03             -3.42956901E+06           1.28741801E+06         321.281586E+06           158.706375E+06           281.217072E+06             1.5228889E-03         -737.129761E-06            16.736412E-06             1.37349319E-03         316.753632E-06           -66.7487793E-03          183.947845E-06            67.0655365E-03         -316.753632E-06           -67.4859085E-03          200.682785E-06            68.4390259E-03            0.                     158.852798E+06             1.50652456E+15          28.0350456E-06           43.38554E-03   
                  52.E+03                  25.7987747               26.3468857              548.112732E-03            76.8431778E-03          410.313812E-03            -3.46078491E+06           1.28879893E+06         322.534332E+06           159.319748E+06           282.328979E+06             1.52197134E-03        -740.085022E-06            16.754406E-06             1.378883E-03           317.988525E-06           -68.0991898E-03          188.733917E-06            68.4171677E-03         -317.988525E-06           -68.8392639E-03          205.488419E-06            69.7960587E-03            0.                     159.464447E+06             1.53696358E+15          28.0277767E-06           43.3747787E-03 
                  53.E+03                  25.7918606               26.3506775              558.8172E-03              78.3641052E-03          410.47168E-03             -3.49158692E+06           1.2901181E+06          323.766327E+06           159.922943E+06           283.422546E+06             1.52091336E-03        -742.991821E-06            16.7715187E-06            1.38418424E-03         319.202667E-06           -69.4486237E-03          193.513474E-06            69.7678146E-03         -319.202667E-06           -70.1916199E-03          210.284256E-06            71.1520081E-03            0.                     160.065887E+06             1.56738198E+15          28.0202694E-06           43.3636742E-03 
                  54.E+03                  25.7849445               26.354454               569.508606E-03            79.8839569E-03          410.629913E-03            -3.52199197E+06           1.29137051E+06         324.978333E+06           160.516281E+06           284.498505E+06             1.51985538E-03        -745.851868E-06            16.7877731E-06            1.38940036E-03         320.39682E-06            -70.7970886E-03          198.284164E-06            71.1174774E-03         -320.39682E-06            -71.5429459E-03          215.070328E-06            72.5068893E-03            0.                     160.657532E+06             1.59777915E+15          28.0127525E-06           43.3525391E-03 
                  55.E+03                  25.7781029               26.3582954              580.192932E-03            81.4033432E-03          410.786285E-03            -3.55213785E+06           1.292521E+06           326.171509E+06           161.10025E+06            285.557861E+06             1.51940715E-03        -748.668213E-06            16.802784E-06             1.39453518E-03         321.572174E-06           -72.1451187E-03          203.019012E-06            72.4666901E-03         -321.572174E-06           -72.8937836E-03          219.824249E-06            73.8612366E-03            0.                     161.239838E+06             1.62816703E+15          28.0053196E-06           43.3415375E-03 
                  56.E+03                  25.7713699               26.3622322              590.868347E-03            82.9219437E-03          410.940216E-03            -3.58192611E+06           1.2935909E+06          327.346191E+06           161.675049E+06           286.601013E+06             1.5185771E-03         -751.441467E-06            16.8166962E-06            1.39959109E-03         322.72879E-06            -73.4923935E-03          207.741272E-06            73.8151245E-03         -322.72879E-06            -74.2438278E-03          224.559097E-06            75.2147064E-03            0.                     161.813095E+06             1.65853894E+15          27.998003E-06            43.3307076E-03 
                  57.E+03                  25.7647648               26.3662949              601.533752E-03            84.439476E-03           411.091156E-03            -3.61133599E+06           1.294608E+06           328.502808E+06           162.240921E+06           287.628082E+06             1.51753426E-03        -754.17218E-06             16.8298874E-06            1.40456975E-03         323.867523E-06           -74.838707E-03           212.453766E-06            75.1625671E-03         -323.867523E-06           -75.5928879E-03          229.285568E-06            76.5671463E-03            0.                     162.377472E+06             1.68888927E+15          27.9908314E-06           43.3200836E-03 
                  58.E+03                  25.7583008               26.3704891              612.189026E-03            85.9558868E-03          411.238861E-03            -3.64038491E+06           1.29557109E+06         329.641907E+06           162.798233E+06           288.63974E+06              1.5164237E-03         -756.862183E-06            16.8424072E-06            1.40947318E-03         324.988708E-06           -76.1839905E-03          217.156021E-06            76.5089798E-03         -324.988708E-06           -76.9408569E-03          234.000381E-06            77.9184723E-03            0.                     162.933289E+06             1.71921766E+15          27.9838085E-06           43.3096924E-03 
                  59.E+03                  25.7519798               26.3748131              622.838379E-03            87.4717712E-03          411.383453E-03            -3.66921997E+06           1.29642105E+06         330.764557E+06           163.347244E+06           289.636932E+06             1.51587713E-03        -759.513794E-06            16.8534527E-06            1.41430557E-03         326.093353E-06           -77.5287781E-03          221.822418E-06            77.8548737E-03         -326.093353E-06           -78.2882919E-03          238.677032E-06            79.269165E-03             0.                     163.480865E+06             1.74953532E+15          27.9769363E-06           43.2995186E-03 
                  60.E+03                  25.7427235               26.3761368              633.411743E-03            88.9866943E-03          411.59494E-03             -3.69774604E+06           1.29719198E+06         331.870789E+06           163.888245E+06           290.619629E+06             1.51492536E-03        -762.127258E-06            16.8634872E-06            1.41906822E-03         327.181671E-06           -78.8726807E-03          226.469254E-06            79.1998672E-03         -327.181671E-06           -79.634819E-03           243.330841E-06            80.618927E-03             0.                     164.020416E+06             1.77983391E+15          27.9668865E-06           43.2846413E-03 
                  61.E+03                  25.7380009               26.3820724              644.071289E-03            90.5005646E-03          411.702881E-03            -3.72588301E+06           1.29792249E+06         332.961243E+06           164.421432E+06           291.588348E+06             1.5138768E-03         -764.703369E-06            16.872982E-06             1.42376316E-03         328.254059E-06           -80.2156067E-03          231.102112E-06            80.543869E-03          -328.254059E-06           -80.9803162E-03          247.974411E-06            81.9676285E-03            0.                     164.552307E+06             1.81011117E+15          27.9617577E-06           43.2770386E-03 
                  62.E+03                  25.7326984               26.3874016              654.70575E-03             92.013237E-03           411.824127E-03            -3.75369811E+06           1.29861307E+06         334.036255E+06           164.947037E+06           292.543396E+06             1.51267624E-03        -767.243591E-06            16.8819828E-06            1.42839158E-03         329.311188E-06           -81.5574341E-03          235.727051E-06            81.8867569E-03         -329.311188E-06           -82.3246918E-03          252.610092E-06            83.315155E-03             0.                     165.076553E+06             1.84036493E+15          27.9559898E-06           43.2685013E-03 
                  63.E+03                  25.7272339               26.3925552              665.32312E-03             93.5246048E-03          411.949036E-03            -3.78116894E+06           1.29926407E+06         335.096252E+06           165.465179E+06           293.485168E+06             1.51135397E-03        -769.748047E-06            16.8903713E-06            1.43295503E-03         330.35321E-06            -82.8980865E-03          240.343155E-06            83.2284317E-03         -330.35321E-06            -83.6678238E-03          257.235504E-06            84.6613846E-03            0.                     165.593414E+06             1.87059212E+15          27.9500542E-06           43.2597084E-03 
                  64.E+03                  25.7217731               26.3976936              675.927429E-03            95.0347137E-03          412.073792E-03            -3.80830598E+06           1.29988456E+06         336.141602E+06           165.976151E+06           294.41391E+06              1.51010096E-03        -772.21814E-06             16.8984203E-06            1.43745613E-03         331.380829E-06           -84.2375717E-03          244.954132E-06            84.5689468E-03         -331.380829E-06           -85.0097961E-03          261.852966E-06            86.0064087E-03            0.                     166.103165E+06             1.90079391E+15          27.9441242E-06           43.2509308E-03 
                  65.E+03                  25.7163811               26.4029045              686.522644E-03            96.5438766E-03          412.197021E-03            -3.83519411E+06           1.30041194E+06         337.173004E+06           166.480225E+06           295.330414E+06             1.50917935E-03        -774.655823E-06            16.9053593E-06            1.44189739E-03         332.394379E-06           -85.5762177E-03          249.543213E-06            85.9086227E-03         -332.394379E-06           -86.3508835E-03          266.446259E-06            87.3505173E-03            0.                     166.606033E+06             1.9309777E+15           27.9382687E-06           43.2422562E-03 
                  66.E+03                  25.7110844               26.4081917              697.110046E-03            98.0522308E-03          412.318207E-03            -3.86185217E+06           1.30085647E+06         338.190796E+06           166.9776E+06             296.234894E+06             1.50833952E-03        -777.06189E-06             16.9111652E-06            1.44628036E-03         333.39447E-06            -86.9141006E-03          254.098328E-06            87.2474899E-03         -333.39447E-06            -87.6911469E-03          271.009735E-06            88.6937561E-03            0.                     167.102188E+06             1.96114457E+15          27.9325104E-06           43.2337303E-03 
                  67.E+03                  25.7058868               26.4135704              707.687561E-03            99.5593948E-03          412.43689E-03             -3.888201E+06             1.30125999E+06         339.195312E+06           167.468399E+06           297.127655E+06             1.50718546E-03        -779.436646E-06            16.9163609E-06            1.45060635E-03         334.381348E-06           -88.2508926E-03          258.639923E-06            88.5852737E-03         -334.381348E-06           -89.0303268E-03          275.559723E-06            90.0358734E-03            0.                     167.591843E+06             1.99128819E+15          27.9268665E-06           43.2253761E-03 
                  68.E+03                  25.7008057               26.4190617              718.254456E-03           101.065247E-03           412.553131E-03            -3.91425991E+06           1.30161691E+06         340.186768E+06           167.952759E+06           298.00885E+06              1.5058372E-03         -781.780579E-06            16.9210625E-06            1.45487583E-03         335.355103E-06           -89.5864792E-03          263.168945E-06            89.9218445E-03         -335.355103E-06           -90.3682556E-03          280.093414E-06            91.376709E-03             0.                     168.075089E+06             2.02140498E+15          27.9213448E-06           43.2171898E-03 
                  69.E+03                  25.6958275               26.4246426              728.810974E-03           102.569771E-03           412.666779E-03            -3.94001007E+06           1.30195153E+06         341.165466E+06           168.430893E+06           298.878693E+06             1.50453305E-03        -784.094666E-06            16.9253693E-06            1.45909119E-03         336.316223E-06           -90.9208832E-03          267.691437E-06            91.2571869E-03         -336.316223E-06           -91.7049789E-03          284.617767E-06            92.7163086E-03            0.                     168.552124E+06             2.05149555E+15          27.9159431E-06           43.2091942E-03 
                  70.E+03                  25.6909714               26.4303322              739.357605E-03           104.073059E-03           412.777771E-03            -3.965482E+06             1.30222857E+06         342.131897E+06           168.902954E+06           299.737671E+06             1.50328064E-03        -786.3797E-06              16.9290009E-06            1.46325326E-03         337.265198E-06           -92.2541351E-03          272.195312E-06            92.5913925E-03         -337.265198E-06           -93.0404968E-03          289.122101E-06            94.0546417E-03            0.                     169.023102E+06             2.08156109E+15          27.9106693E-06           43.2013779E-03 
                  71.E+03                  25.6862183               26.4361191              749.898071E-03           105.575607E-03           412.886414E-03            -3.99079585E+06           1.30239856E+06         343.086609E+06           169.369217E+06           300.586365E+06             1.50254929E-03        -788.637695E-06            16.9311695E-06            1.46736503E-03         338.202362E-06           -93.5867157E-03          276.658691E-06            93.9248886E-03         -338.202362E-06           -94.3753433E-03          293.589203E-06            95.3922729E-03            0.                     169.488358E+06             2.11161232E+15          27.9055023E-06           43.193737E-03  
                  72.E+03                  25.6815796               26.4420052              760.429749E-03           107.077019E-03           412.992584E-03            -4.01582384E+06           1.30251503E+06         344.029694E+06           169.829742E+06           301.424774E+06             1.50141883E-03        -790.867981E-06            16.9327106E-06            1.47142732E-03         339.128082E-06           -94.9182358E-03          281.100616E-06            95.2573547E-03         -339.128082E-06           -95.7091064E-03          298.037659E-06            96.7287903E-03            0.                     169.947861E+06             2.14164042E+15          27.9004593E-06           43.186264E-03  
                  73.E+03                  25.677042                26.4479904              770.951843E-03           108.577202E-03           413.096283E-03            -4.04058933E+06           1.30260646E+06         344.961273E+06           170.284698E+06           302.25296E+06              1.50015914E-03        -793.071838E-06            16.9339027E-06            1.47544014E-03         340.04248E-06            -96.2486267E-03          285.532318E-06            96.5886688E-03         -340.04248E-06            -97.041687E-03           302.468903E-06            98.0641098E-03            0.                     170.401779E+06             2.17164397E+15          27.8955231E-06           43.1789589E-03 
                  74.E+03                  25.6726055               26.454073               781.463745E-03           110.075996E-03           413.197571E-03            -4.06507492E+06           1.30268157E+06         345.881836E+06           170.734146E+06           303.071411E+06             1.49881625E-03        -795.249329E-06            16.9348488E-06            1.47940528E-03         340.94577E-06            -97.5777969E-03          289.950531E-06            97.9187469E-03         -340.94577E-06            -98.3730469E-03          306.89035E-06             99.3981323E-03            0.                     170.850296E+06             2.2016201E+15           27.8907108E-06           43.1718292E-03 
                  75.E+03                  25.6682777               26.4602432              791.96521E-03            111.573441E-03           413.29657E-03             -4.08928585E+06           1.30272758E+06         346.791504E+06           171.178314E+06           303.880096E+06             1.4974314E-03         -797.401184E-06            16.9353943E-06            1.48332369E-03         341.838226E-06           -98.9057007E-03          294.353821E-06            99.2475433E-03         -341.838226E-06           -99.7030945E-03          311.295044E-06           100.730865E-03             0.                     171.293503E+06             2.23156905E+15          27.8860073E-06           43.1648674E-03 
                  76.E+03                  25.6640472               26.4664993              802.453491E-03           113.069054E-03           413.393188E-03            -4.11313915E+06           1.30275095E+06         347.690369E+06           171.617188E+06           304.679169E+06             1.49562716E-03        -799.526794E-06            16.935751E-06             1.48719525E-03         342.720062E-06          -100.231987E-03           298.765472E-06           100.574699E-03          -342.720062E-06          -101.031494E-03           315.696472E-06           102.061882E-03             0.                     171.731415E+06             2.26148152E+15          27.8814201E-06           43.158062E-03  
                  77.E+03                  25.6599216               26.472847               812.923035E-03           114.562134E-03           413.487488E-03            -4.13654804E+06           1.30279851E+06         348.578247E+06           172.050735E+06           305.468353E+06             1.49306905E-03        -801.626282E-06            16.9363995E-06            1.49101985E-03         343.591125E-06          -101.555946E-03           303.182739E-06           101.899536E-03          -343.591125E-06          -102.357552E-03           320.118835E-06           103.390564E-03             0.                     172.164154E+06             2.29134274E+15          27.876936E-06            43.1514168E-03 
                  78.E+03                  25.655901                26.4792805              823.37561E-03            116.052803E-03           413.579437E-03            -4.1596899E+06            1.30293345E+06         349.455566E+06           172.479111E+06           306.248169E+06             1.49067259E-03        -803.7005E-06              16.9381313E-06            1.49479842E-03         344.451691E-06          -102.877769E-03           307.602814E-06           103.222206E-03          -344.451691E-06          -103.681473E-03           324.546356E-06           104.716995E-03             0.                     172.591644E+06             2.32115602E+15          27.8725681E-06           43.1449432E-03 
                  79.E+03                  25.6519852               26.4857998              833.817627E-03           117.541969E-03           413.669037E-03            -4.18263626E+06           1.30301404E+06         350.322876E+06           172.902588E+06           307.019135E+06             1.48917699E-03        -805.751343E-06            16.9391708E-06            1.49853408E-03         345.302582E-06          -104.198204E-03           312.01358E-06            104.54351E-03           -345.302582E-06          -105.003952E-03           328.952911E-06           106.042046E-03             0.                     173.014236E+06             2.35093975E+15          27.8683052E-06           43.1386299E-03 
                  80.E+03                  25.6481552               26.4924088              844.252258E-03           119.030167E-03           413.7565E-03              -4.20543194E+06           1.30295658E+06         351.180634E+06           173.32132E+06            307.781677E+06             1.4881748E-03         -807.780212E-06            16.9384003E-06            1.50222945E-03         346.143982E-06          -105.517731E-03           316.389832E-06           105.863876E-03          -346.143982E-06          -106.325523E-03           333.325012E-06           107.366089E-03             0.                     173.432175E+06             2.38070297E+15          27.8641472E-06           43.1324768E-03 
                  81.E+03                  25.6444168               26.4990959              854.677185E-03           120.517014E-03           413.841949E-03            -4.22802401E+06           1.30283248E+06         352.029114E+06           173.735519E+06           308.536041E+06             1.48687494E-03        -809.786987E-06            16.936821E-06             1.50588405E-03         346.976105E-06          -106.836075E-03           320.741455E-06           107.183044E-03          -346.976105E-06          -107.645844E-03           337.680817E-06           108.688934E-03             0.                     173.845505E+06             2.41044044E+15          27.8600826E-06           43.1264725E-03 
                  82.E+03                  25.6407681               26.5058594              865.092407E-03           122.002548E-03           413.925415E-03            -4.25038815E+06           1.30267453E+06         352.868347E+06           174.145187E+06           309.282196E+06             1.48550737E-03        -811.772156E-06            16.9347763E-06            1.50949955E-03         347.799042E-06          -108.153168E-03           325.075348E-06           108.500969E-03          -347.799042E-06          -108.964935E-03           342.016113E-06           110.01046E-03              0.                     174.25441E+06              2.44015026E+15          27.8561172E-06           43.120594E-03  
                  83.E+03                  25.6371956               26.5126953              875.49707E-03            123.48658E-03            414.006958E-03            -4.27252197E+06           1.30248952E+06         353.698608E+06           174.55043E+06            310.020325E+06             1.48404551E-03        -813.736145E-06            16.9324055E-06            1.51307607E-03         348.613129E-06          -109.468933E-03           329.404144E-06           109.817551E-03          -348.613129E-06          -110.282669E-03           346.335602E-06           111.330627E-03             0.                     174.658813E+06             2.46983171E+15          27.8522415E-06           43.1148567E-03 
                  84.E+03                  25.6337147               26.5196056              885.890747E-03           124.969093E-03           414.086578E-03            -4.29443693E+06           1.30228245E+06         354.519989E+06           174.951324E+06           310.750671E+06             1.4825331E-03         -815.679138E-06            16.9296322E-06            1.51661444E-03         349.418365E-06          -110.78334E-03            333.714294E-06           111.132774E-03          -349.418365E-06          -111.59903E-03            350.64386E-06            112.649391E-03             0.                     175.058975E+06             2.49948192E+15          27.8484592E-06           43.1092415E-03 
                  85.E+03                  25.6303139               26.5265865              896.273682E-03           126.45015E-03            414.164307E-03            -4.31611395E+06           1.30204499E+06         355.332764E+06           175.348007E+06           311.473236E+06             1.48101914E-03        -817.601624E-06            16.9265976E-06            1.52011538E-03         350.215149E-06          -112.096359E-03           338.01886E-06            112.446594E-03          -350.215149E-06          -112.913994E-03           354.942871E-06           113.966721E-03             0.                     175.45488E+06              2.52910233E+15          27.8447647E-06           43.1037674E-03 
                  86.E+03                  25.6269951               26.5336342              906.643677E-03           127.929329E-03           414.240204E-03            -4.33747435E+06           1.30179E+06            356.136963E+06           175.740524E+06           312.188202E+06             1.47920358E-03        -819.50354E-06             16.9232655E-06            1.52358019E-03         351.00351E-06           -113.407768E-03           342.315063E-06           113.758781E-03          -351.00351E-06           -114.227287E-03           359.236267E-06           115.282372E-03             0.                     175.846664E+06             2.55868697E+15          27.8411541E-06           43.0984268E-03 
                  87.E+03                  25.6237488               26.5407486              917.000061E-03           129.406586E-03           414.314301E-03            -4.35854578E+06           1.30146551E+06         356.932739E+06           176.128952E+06           312.895599E+06             1.4772526E-03         -821.385132E-06            16.9191036E-06            1.52700818E-03         351.783508E-06          -114.717407E-03           346.602844E-06           115.069191E-03          -351.783508E-06          -115.538788E-03           363.51944E-06            116.596191E-03             0.                     176.234375E+06             2.5882318E+15           27.8376312E-06           43.0932121E-03 
                  88.E+03                  25.6205864               26.5479279              927.345276E-03           130.882294E-03           414.386658E-03            -4.37947416E+06           1.30108404E+06         357.720245E+06           176.513367E+06           313.595734E+06             1.47569919E-03        -823.247803E-06            16.9141273E-06            1.53040028E-03         352.555481E-06          -116.025612E-03           350.858093E-06           116.378159E-03          -352.555481E-06          -116.848869E-03           367.778351E-06           117.908577E-03             0.                     176.618027E+06             2.61774611E+15          27.834198E-06            43.0881119E-03 
                  89.E+03                  25.6174984               26.5551739              937.678589E-03           132.356277E-03           414.457306E-03            -4.40021563E+06           1.30074358E+06         358.499847E+06           176.893799E+06           314.288788E+06             1.47397518E-03        -825.091431E-06            16.9096737E-06            1.5337584E-03          353.319519E-06          -117.332268E-03           355.102112E-06           117.685585E-03          -353.319519E-06          -118.157364E-03           372.015869E-06           119.219337E-03             0.                     176.997803E+06             2.6472249E+15           27.8308411E-06           43.0831451E-03 
                  90.E+03                  25.6144829               26.5624828              947.999329E-03           133.82843E-03            414.526093E-03            -4.4207778E+06            1.30043447E+06         359.271271E+06           177.270294E+06           314.97467E+06              1.47218323E-03        -826.916321E-06            16.9056587E-06            1.5370822E-03          354.075745E-06          -118.637306E-03           359.334045E-06           118.991386E-03          -354.075745E-06          -119.464203E-03           376.240356E-06           120.528465E-03             0.                     177.373627E+06             2.67666888E+15          27.8275661E-06           43.0782928E-03 
                  91.E+03                  25.6115417               26.5698509              958.309387E-03           135.299118E-03           414.593445E-03            -4.44113636E+06           1.30006051E+06         360.035248E+06           177.643143E+06           315.65387E+06              1.47066748E-03        -828.723328E-06            16.9007759E-06            1.54037309E-03         354.824371E-06          -119.940956E-03           363.545471E-06           120.295776E-03          -354.824371E-06          -120.769676E-03           380.44339E-06            121.836143E-03             0.                     177.745758E+06             2.70608234E+15          27.8243675E-06           43.0735664E-03 
                  92.E+03                  25.6086731               26.5772839              968.609253E-03           136.768311E-03           414.659027E-03            -4.46127796E+06           1.29964602E+06         360.791809E+06           178.012283E+06           316.326508E+06             1.46918249E-03        -830.512573E-06            16.8953857E-06            1.54363227E-03         355.565765E-06          -121.243256E-03           367.745758E-06           121.598839E-03          -355.565765E-06          -122.073784E-03           384.638062E-06           123.142448E-03             0.                     178.114273E+06             2.735466E+15            27.8212528E-06           43.0689392E-03 
                  93.E+03                  25.6058693               26.5847664              978.898743E-03           138.236023E-03           414.723083E-03            -4.48121929E+06           1.29921043E+06         361.541138E+06           178.377975E+06           316.992676E+06             1.46773195E-03        -832.284485E-06            16.8897247E-06            1.54686022E-03         356.299896E-06          -122.544273E-03           371.933899E-06           122.900574E-03          -356.299896E-06          -123.376549E-03           388.825287E-06           124.447433E-03             0.                     178.479263E+06             2.76482034E+15          27.818203E-06            43.0644264E-03 
                  94.E+03                  25.6031265               26.5923061              989.177917E-03           139.702255E-03           414.785736E-03            -4.50095797E+06           1.29874754E+06         362.283234E+06           178.740082E+06           317.652405E+06             1.46623516E-03        -834.039856E-06            16.8837719E-06            1.55005765E-03         357.027161E-06          -123.84391E-03            376.114594E-06           124.200951E-03          -357.027161E-06          -124.67794E-03            392.996704E-06           125.750992E-03             0.                     178.840759E+06             2.79414558E+15          27.8152256E-06           43.0600204E-03 
                  95.E+03                  25.6004505               26.5998974              999.444824E-03           141.166718E-03           414.846832E-03            -4.52042675E+06           1.29826796E+06         363.018311E+06           179.098831E+06           318.305847E+06             1.46446073E-03        -835.777832E-06            16.8774776E-06            1.55322397E-03         357.747253E-06          -125.141945E-03           380.278564E-06           125.499695E-03          -357.747253E-06          -125.977722E-03           397.15506E-06            127.052917E-03             0.                     179.198868E+06             2.82343459E+15          27.8123188E-06           43.0557137E-03 
                  96.E+03                  25.5978394               26.6075325                1.00969613             142.628967E-03           414.906647E-03            -4.53955412E+06           1.29775095E+06         363.746307E+06           179.454147E+06           318.952881E+06             1.46223652E-03        -837.498474E-06            16.8707638E-06            1.55635941E-03         358.46048E-06           -126.437981E-03           384.451813E-06           126.796425E-03          -358.46048E-06           -127.275482E-03           401.321808E-06           128.352798E-03             0.                     179.553619E+06             2.85267925E+15          27.8094845E-06           43.0515099E-03 
                  97.E+03                  25.5952911               26.6152229                1.0199343              144.089264E-03           414.964844E-03            -4.55850697E+06           1.29726291E+06         364.467407E+06           179.806076E+06           319.593719E+06             1.46032798E-03        -839.202515E-06            16.8644123E-06            1.55946517E-03         359.167053E-06          -127.732292E-03           388.613922E-06           128.091461E-03          -359.167053E-06          -128.571503E-03           405.482025E-06           129.650925E-03             0.                     179.904984E+06             2.88188672E+15          27.8067131E-06           43.0473976E-03 
                  98.E+03                  25.592802                26.6229591                1.03015995             145.547852E-03           415.02179E-03             -4.57727385E+06           1.29679346E+06         365.181702E+06           180.154694E+06           320.228577E+06             1.45855498E-03        -840.890869E-06            16.8583279E-06            1.5625422E-03          359.866974E-06          -129.025024E-03           392.766663E-06           129.384888E-03          -359.866974E-06          -129.865906E-03           409.623627E-06           130.947418E-03             0.                     180.253067E+06             2.91105676E+15          27.8040085E-06           43.043396E-03  
                  99.E+03                  25.5903702               26.630743                 1.04037356             147.004654E-03           415.077301E-03            -4.59586525E+06           1.29632652E+06         365.889313E+06           180.500137E+06           320.857483E+06             1.45679951E-03        -842.563599E-06            16.8522243E-06            1.56559026E-03         360.560455E-06          -130.316116E-03           396.906403E-06           130.676682E-03          -360.560455E-06          -131.158691E-03           413.758698E-06           132.242279E-03             0.                     180.597885E+06             2.94019294E+15          27.8013687E-06           43.0394783E-03 
                 100.E+03                  25.5879993               26.6385689                1.05057478             148.459641E-03           415.131561E-03            -4.6142621E+06            1.29582155E+06         366.590576E+06           180.842407E+06           321.480682E+06             1.45498216E-03        -844.220825E-06            16.8456898E-06            1.56861091E-03         361.247559E-06          -131.605621E-03           401.034943E-06           131.966858E-03          -361.247559E-06          -132.449814E-03           417.88443E-06            133.535477E-03             0.                     180.939545E+06             2.96929193E+15          27.7987919E-06           43.0356636E-03 




