
                     X                      Cbar_L                 Cbar_total               Cbar_trap                   PEEQ                  PSI_Cbar_L                  S_11                     S_12                     S_22                     S_33                   S_Mises                   dPEEQ                eps_elastic_11           eps_elastic_12           eps_elastic_22           eps_elastic_33           eps_plastic_11           eps_plastic_12           eps_plastic_22           eps_plastic_33            eps_total_11             eps_total_12             eps_total_22             eps_total_33          hydrostatic_stress             rho_d                   theta_L                 theta_trap      

                   0.                       0.                       0.                       0.                       0.                       0.                       0.                       0.                       0.                       0.                       0.                       0.                       0.                       0.                       0.                       0.                       0.                       0.                       0.                       0.                       0.                       0.                       0.                       0.                       0.                       0.                       0.                       0.            
                   1.E+03                  26.9999981               27.0000343               37.1929169E-06            0.                     382.857208E-03           920.562256E+03            47.3932495E+03          123.115349E+06            36.432312E+06           108.872902E+06             0.                    -230.826431E-06           616.101257E-09           563.43988E-06              0.                       0.                       0.                       0.                       0.                    -230.826431E-06           616.101257E-09           563.43988E-06              0.                      55.4356003E+06           99.9999771E+09           29.3327847E-06           45.3027039E-03 
                   2.E+03                  27.0903625               27.0914173                1.05441439E-03         136.347168E-06           380.791504E-03             7.58886099E+06        -795.039307E+03           229.933411E+06            76.6366425E+06          197.11467E+06            136.347168E-06          -418.682404E-06           -10.3355026E-06            1.02655709E-03          30.1280384E-06         -101.212379E-06             1.94175124E-06         131.340393E-06           -30.1280384E-06         -519.894836E-06            -8.39373875E-06           1.15789759E-03           0.                     104.387619E+06             2.8269434E+12           29.4309616E-06           45.4474335E-03 
                   3.E+03                  27.1868744               27.1937218                6.84276772E-03         908.885925E-06           378.585632E-03             4.71035671E+06          41.0214996E+03          253.604935E+06            99.5795364E+06          217.56897E+06            772.538757E-06          -483.924072E-06           533.271301E-09             1.13389027E-03         132.725555E-06          -713.237915E-06             5.30777931E-06         845.963623E-06          -132.725555E-06            -1.19716191E-03           5.84107685E-06           1.97985399E-03           0.                     128.834488E+06            18.2777233E+12           29.5358219E-06           45.6019783E-03 
                   4.E+03                  26.817131                26.8316078               14.4748774E-03            1.95346844E-03         387.036865E-03             3.57358146E+06        -894.724487E+03           276.163727E+06           122.832458E+06           236.68895E+06              1.04458249E-03        -568.614502E-06           -11.6313696E-06            1.2032212E-03          206.568268E-06            -1.57996857E-03          -5.44129229E-06           1.78653705E-03        -206.568268E-06            -2.14858317E-03         -17.0727501E-06            2.98975825E-03           0.                     129.045425E+06            39.1693726E+12           29.1341324E-06           45.0096855E-03 
                   5.E+03                  26.7719612               26.7946472               22.6862202E-03            3.06948876E-03         388.069427E-03             3.88133907E+06        -346.608612E+03           300.829773E+06           139.205994E+06           257.501556E+06             1.11602068E-03        -616.729614E-06            -4.50590563E-06           1.31343544E-03         262.880737E-06            -2.51805282E-03          -8.04594326E-06           2.78093266E-03        -262.880737E-06            -3.13478208E-03         -12.5520601E-06            4.09436893E-03           0.                     153.925186E+06            61.4897842E+12           29.085043E-06            44.9372635E-03 
                   6.E+03                  26.7291832               26.7613258               32.1442947E-03            4.35794544E-03         389.047089E-03             3.74012208E+06        -356.752014E+03           318.536285E+06           151.789062E+06           272.78244E+06              1.28845727E-03        -656.007141E-06            -4.63777733E-06           1.39016843E-03         306.311066E-06            -3.61256838E-03         -10.9203758E-06            3.91887927E-03        -306.311066E-06            -4.26857567E-03         -15.5581436E-06            5.30904818E-03           0.                     161.453308E+06            87.2589188E+12           29.0385723E-06           44.8686905E-03 
                   7.E+03                  26.6165066               26.6591835               42.6810455E-03            5.81151485E-03         391.622681E-03             3.70599008E+06        -398.644745E+03           334.860809E+06           162.41951E+06            286.871429E+06             1.45356929E-03        -691.409607E-06            -5.18238068E-06           1.46109629E-03         340.228333E-06            -4.85546637E-03         -14.310113E-06             5.19569588E-03        -340.228333E-06            -5.54687786E-03         -19.492857E-06             6.65679216E-03           0.                     169.595596E+06           116.330307E+12            28.9161587E-06           44.6879807E-03 
                   8.E+03                  26.530056                26.5842857               54.2270584E-03            7.4080019E-03          393.598633E-03             3.69448614E+06        -243.930252E+03           351.094421E+06           171.714233E+06           300.911072E+06             1.59648597E-03        -722.614319E-06            -3.17108798E-06           1.53548539E-03         369.514374E-06            -6.22463608E-03         -14.9856062E-06            6.5941515E-03         -369.514374E-06            -6.94724989E-03         -18.1564541E-06            8.1296339E-03            0.                     179.073822E+06           148.260025E+12            28.8222427E-06           44.5492973E-03 
                   9.E+03                  26.4549599               26.5220432               67.0812454E-03            9.1900692E-03          395.315094E-03             3.61344004E+06         -57.0844994E+03          366.19754E+06            180.122787E+06           314.043488E+06             1.78206873E-03        -751.608093E-06          -742.147705E-09             1.60518885E-03         395.702484E-06            -7.75621367E-03         -12.0436459E-06            8.1519165E-03         -395.702484E-06            -8.50782299E-03         -12.7858515E-06            9.75710678E-03           0.                     186.65065E+06            183.901382E+12            28.7406578E-06           44.4288063E-03 
                  10.E+03                  26.3891449               26.4701347               80.994133E-03            11.1236086E-03          396.819519E-03             3.59562206E+06          93.9069977E+03          380.384796E+06           187.747818E+06           326.336548E+06             1.93353903E-03        -777.230957E-06             1.22066569E-06           1.67189837E-03         419.758057E-06            -9.42035866E-03          -5.79023647E-06           9.84011841E-03        -419.758057E-06           -10.1975918E-03           -4.56912661E-06          11.5120163E-03            0.                     194.168213E+06           222.572174E+12            28.6691589E-06           44.3231659E-03 
                  11.E+03                  26.3352928               26.4293022               94.0121078E-03           12.9374981E-03          398.050323E-03             3.65825701E+06          96.7612534E+03          392.312378E+06           193.969849E+06           336.608337E+06             1.81388819E-03        -796.559204E-06             1.25795126E-06           1.72969282E-03         440.466064E-06           -10.9824791E-03         -223.67749E-09             11.422946E-03          -440.466064E-06           -11.7790384E-03            1.03397179E-06          13.1526384E-03            0.                     200.438492E+06           258.849945E+12            28.6106567E-06           44.2367172E-03 
                  12.E+03                  26.2804337               26.3863506              105.918541E-03            14.6057043E-03          399.304199E-03             3.74381113E+06          54.0387497E+03          402.290985E+06           199.182693E+06           345.173309E+06             1.66820943E-03        -812.15863E-06            702.468201E-09             1.77839792E-03         458.193695E-06           -12.4197807E-03            3.93067575E-06          12.8779764E-03         -458.193695E-06           -13.2319384E-03            4.63353395E-06          14.6563721E-03            0.                     205.119019E+06           292.214233E+12            28.551054E-06            44.1486282E-03 
                  13.E+03                  26.2391701               26.3563728              117.209938E-03            16.1875534E-03          400.247559E-03             3.80382919E+06          34.1092491E+03          411.163391E+06           203.768921E+06           352.803284E+06             1.58184695E-03        -825.642883E-06           443.455078E-09             1.82219434E-03         474.130219E-06           -13.7830658E-03            7.39665127E-06          14.2571983E-03         -474.130219E-06           -14.6087084E-03            7.84025145E-06          16.0793915E-03            0.                     209.447327E+06           323.851105E+12            28.5062218E-06           44.0823593E-03 
                  14.E+03                  26.1964626               26.3245506              128.086227E-03            17.7176609E-03          401.223541E-03             3.86868596E+06         -20.2835007E+03          419.026825E+06           207.87056E+06            359.555267E+06             1.53010833E-03        -837.332336E-06          -263.727997E-09             1.86119568E-03         488.679962E-06           -15.1021891E-03            9.876647E-06            15.590867E-03          -488.679962E-06           -15.9395227E-03            9.61252975E-06          17.4520645E-03            0.                     213.222412E+06           354.453247E+12            28.4598312E-06           44.0137787E-03 
                  15.E+03                  26.1567383               26.2954121              138.683258E-03            19.2117634E-03          402.131775E-03             3.91640997E+06         -42.7335014E+03          426.332886E+06           211.635239E+06           365.840027E+06             1.49409795E-03        -847.875122E-06          -555.584839E-09             1.8978318E-03          502.297058E-06           -16.3905411E-03           11.9279137E-06           16.8928394E-03         -502.297058E-06           -17.2384167E-03           11.3733406E-06           18.7906704E-03            0.                     216.873734E+06           384.335114E+12            28.4166641E-06           43.949955E-03  
                  16.E+03                  26.1220818               26.2711945              149.113541E-03            20.6832333E-03          402.923767E-03             3.95815492E+06         -60.6580009E+03          433.137177E+06           215.12413E+06            371.695709E+06             1.47147131E-03        -857.333557E-06          -788.557373E-09             1.93232977E-03         515.245483E-06           -17.6596069E-03           13.6513844E-06           18.1748466E-03         -515.245483E-06           -18.5169392E-03           12.8621178E-06           20.1071758E-03            0.                     220.292847E+06           413.764679E+12            28.3790169E-06           43.8942795E-03 
                  17.E+03                  26.0902672               26.2497082              159.443573E-03            22.1422024E-03          403.650879E-03             3.99823189E+06         -80.4382477E+03          439.494781E+06           218.398041E+06           377.165924E+06             1.45896852E-03        -865.990173E-06            -1.04570067E-06           1.96473765E-03         527.608948E-06           -18.9181309E-03           15.05902E-06             19.4457378E-03         -527.608948E-06           -19.784111E-03            14.0136681E-06           21.4104691E-03            0.                     223.425568E+06           442.943939E+12            28.3444557E-06           43.8431778E-03 
                  18.E+03                  26.0593204               26.2290173              169.70018E-03             23.5936337E-03          404.358398E-03             4.03636026E+06        -101.595749E+03           445.504974E+06           221.491364E+06           382.337128E+06             1.45142972E-03        -873.976685E-06            -1.32070994E-06           1.99556863E-03         539.480835E-06           -20.1703739E-03           16.1596413E-06           20.7098522E-03         -539.480835E-06           -21.0443535E-03           14.8386459E-06           22.7054253E-03            0.                     226.416519E+06           471.972565E+12            28.3108368E-06           43.7934341E-03 
                  19.E+03                  26.0300503               26.2099533              179.911545E-03            25.0405216E-03          405.027405E-03             4.0668149E+06         -115.085999E+03           451.242218E+06           224.422607E+06           387.278778E+06             1.44688821E-03        -881.319031E-06            -1.49606788E-06           2.02532077E-03         550.99353E-06            -21.4188595E-03           17.05723E-06             21.9698524E-03         -550.99353E-06            -22.3001766E-03           15.56112E-06             23.9951744E-03            0.                     229.33136E+06            500.910339E+12            28.2790298E-06           43.7463913E-03 
                  20.E+03                  26.0031662               26.1932678              190.106308E-03            26.4858704E-03          405.641846E-03             4.09371614E+06        -128.001007E+03           456.728271E+06           227.220734E+06           392.006104E+06             1.44535363E-03        -888.120056E-06            -1.66402602E-06           2.05400515E-03         562.205566E-06           -22.6661682E-03           17.7622414E-06           23.2283745E-03         -562.205566E-06           -23.554285E-03            16.0984917E-06           25.2823772E-03            0.                     232.093033E+06           529.817505E+12            28.2498264E-06           43.7032013E-03 
                  21.E+03                  25.9776306               26.177927               200.294754E-03            27.9318275E-03          406.225433E-03             4.12140083E+06        -143.136246E+03           461.979279E+06           229.90538E+06            396.529114E+06             1.44595611E-03        -894.465637E-06            -1.86075699E-06           2.0816102E-03          573.130249E-06           -23.9141388E-03           18.2492085E-06           24.4872742E-03         -573.130249E-06           -24.8086052E-03           16.3879604E-06           26.5688896E-03            0.                     234.711746E+06           558.736572E+12            28.2220974E-06           43.6621552E-03 
                  22.E+03                  25.9529171               26.1634026              210.480835E-03            29.3792934E-03          406.790466E-03             4.14727592E+06        -157.355499E+03           467.032074E+06           232.48291E+06            400.882111E+06             1.44746995E-03        -900.368713E-06            -2.04563189E-06           2.10838246E-03         583.812683E-06           -25.1635571E-03           18.534483E-06            25.7473698E-03         -583.812683E-06           -26.0639267E-03           16.4882507E-06           27.8557529E-03            0.                     237.260513E+06           587.685852E+12            28.1952457E-06           43.622406E-03  
                  23.E+03                  25.9295902               26.1502609              220.673096E-03            30.8286839E-03          407.323639E-03             4.1697278E+06         -170.733749E+03           471.911316E+06           234.963684E+06           405.087921E+06             1.44938922E-03        -905.865906E-06            -2.21949816E-06           2.13445401E-03         594.294861E-06           -26.4147415E-03           18.628315E-06            27.009037E-03          -594.294861E-06           -27.3206062E-03           16.408392E-06            29.143486E-03             0.                     239.730209E+06           616.673828E+12            28.1698971E-06           43.5849152E-03 
                  24.E+03                  25.9123917               26.1433144              230.920898E-03            32.2810402E-03          407.716644E-03             4.19129992E+06        -184.655243E+03           476.622253E+06           237.359802E+06           409.148682E+06             1.45235634E-03        -911.004028E-06            -2.40054941E-06           2.15979671E-03         604.590881E-06           -27.6685867E-03           18.5238914E-06           28.2731762E-03         -604.590881E-06           -28.5795937E-03           16.124279E-06            30.4329739E-03            0.                     242.098267E+06           645.720947E+12            28.1512146E-06           43.5572624E-03 
                  25.E+03                  25.8938808               26.1350613              241.174423E-03            33.7376823E-03          408.139679E-03             4.21352959E+06        -201.042496E+03           481.077301E+06           239.642273E+06           412.987183E+06             1.45664048E-03        -915.620178E-06            -2.6135602E-06            2.18399429E-03         614.666992E-06           -28.9262619E-03           18.1987991E-06           29.5409298E-03         -614.666992E-06           -29.8418846E-03           15.5867901E-06           31.7249222E-03            0.                     244.334137E+06           674.853638E+12            28.1311054E-06           43.5275192E-03 
                  26.E+03                  25.8696861               26.1210709              251.381516E-03            35.1972046E-03          408.692902E-03             4.23286724E+06        -215.105743E+03           485.437866E+06           241.860825E+06           416.746552E+06             1.45952761E-03        -920.006348E-06            -2.79632878E-06           2.2078259E-03          624.575562E-06           -30.1865253E-03           17.6784229E-06           30.8111057E-03         -624.575562E-06           -31.106535E-03            14.8822441E-06           33.01894E-03              0.                     246.536636E+06           704.044312E+12            28.1048203E-06           43.4886055E-03 
                  27.E+03                  25.848587                26.1101971              261.611664E-03            36.6583748E-03          409.175079E-03             4.24802113E+06        -225.7845E+03             489.804688E+06           244.057556E+06           420.515076E+06             1.46116579E-03        -924.371399E-06            -2.93522334E-06           2.23174667E-03         634.39093E-06            -31.4482632E-03           16.9961128E-06           32.0826454E-03         -634.39093E-06            -32.3726234E-03           14.0605259E-06           34.3143921E-03            0.                     248.739014E+06           733.267517E+12            28.0818977E-06           43.4546776E-03 
                  28.E+03                  25.8342972               26.1062183              271.91922E-03             38.123085E-03           409.50174E-03              4.26330805E+06        -238.5E+03                494.002686E+06           246.183777E+06           424.137177E+06             1.46470881E-03        -928.401978E-06            -3.10048556E-06           2.25490355E-03         644.081177E-06           -32.7131233E-03           16.1299267E-06           33.3572044E-03         -644.081177E-06           -33.6415215E-03           13.0307159E-06           35.6121101E-03            0.                     250.839539E+06           762.561707E+12            28.0663738E-06           43.4316978E-03 
                  29.E+03                  25.8188324               26.1010685              282.235748E-03            39.5923233E-03          409.855225E-03             4.27971792E+06        -253.172256E+03           497.958221E+06           248.207565E+06           427.548248E+06             1.46922827E-03        -931.935669E-06            -3.29118466E-06           2.27697372E-03         653.59491E-06            -33.9820099E-03           15.0635605E-06           34.6355934E-03         -653.59491E-06            -34.9139366E-03           11.773139E-06            36.9125633E-03            0.                     252.824768E+06           791.946228E+12            28.0495701E-06           43.406826E-03  
                  30.E+03                  25.8026524               26.0952053              292.552338E-03            41.0643463E-03          410.224976E-03             4.29369593E+06        -265.445251E+03           501.845367E+06           250.181976E+06           430.902313E+06             1.47202957E-03        -935.299561E-06            -3.45084834E-06           2.29878688E-03         662.974121E-06           -35.2533798E-03           13.8224564E-06           35.9163399E-03         -662.974121E-06           -36.1886635E-03           10.3723726E-06           38.2151337E-03            0.                     254.786499E+06           821.386841E+12            28.0319881E-06           43.3807907E-03 
                  31.E+03                  25.7868423               26.0897198              302.879456E-03            42.5390282E-03          410.586365E-03             4.30554008E+06        -276.890015E+03           505.660156E+06           252.113174E+06           434.195587E+06             1.4746809E-03         -938.507812E-06            -3.59953642E-06           2.32029748E-03         672.241394E-06           -36.5271034E-03           12.4142389E-06           37.1993446E-03         -672.241394E-06           -37.4656029E-03            8.81595707E-06          39.5196457E-03            0.                     256.701904E+06           850.880676E+12            28.0148163E-06           43.355381E-03  
                  32.E+03                  25.7715874               26.0848064              313.219849E-03            44.0163994E-03          410.935089E-03             4.31642914E+06        -288.380737E+03           509.384308E+06           253.998856E+06           437.411194E+06             1.47737312E-03        -941.537781E-06            -3.7489481E-06            2.34140396E-03         681.398438E-06           -37.8032074E-03           10.8361712E-06           38.4846077E-03         -681.398438E-06           -38.744751E-03             7.0870738E-06           40.8260078E-03            0.                     258.565247E+06           880.427856E+12            27.9982452E-06           43.3308372E-03 
                  33.E+03                  25.7568169               26.080389               323.572266E-03            45.496315E-03           411.272736E-03             4.32633781E+06        -299.54776E+03            513.018188E+06           255.839111E+06           440.549469E+06             1.47991681E-03        -944.386108E-06            -3.89416885E-06           2.36211109E-03         690.44696E-06            -39.0815887E-03            9.09162903E-06          39.7720261E-03         -690.44696E-06            -40.0259781E-03            5.19712925E-06          42.1341515E-03            0.                     260.38446E+06            910.026367E+12            27.9821949E-06           43.3070793E-03 
                  34.E+03                  25.7425632               26.0764999              333.936401E-03            46.9786224E-03          411.598572E-03             4.33514023E+06        -310.480499E+03           516.566833E+06           257.635773E+06           443.614899E+06             1.48230255E-03        -947.06366E-06             -4.03624296E-06           2.38244152E-03         699.390381E-06           -40.3620834E-03            7.18544483E-06          41.0614815E-03         -699.390381E-06           -41.3091354E-03            3.15229416E-06          43.4439125E-03            0.                     262.160706E+06           939.672241E+12            27.9667072E-06           43.2841377E-03 
                  35.E+03                  25.7288074               26.073122               344.312103E-03            48.463192E-03           411.912903E-03             4.34307432E+06        -321.37149E+03            520.033264E+06           259.391022E+06           446.609894E+06             1.48458469E-03        -949.580933E-06            -4.177917E-06             2.40240574E-03         708.230225E-06           -41.6446075E-03            5.11726809E-06          42.3528442E-03         -708.230225E-06           -42.5941925E-03          939.23877E-09             44.7552528E-03            0.                     263.893616E+06           969.364136E+12            27.9517689E-06           43.2620049E-03 
                  36.E+03                  25.7155151               26.070219               354.699524E-03            49.9500999E-03          412.216675E-03             4.35017586E+06        -332.101501E+03           523.421631E+06           261.106598E+06           449.538025E+06             1.48689842E-03        -951.946716E-06            -4.31733847E-06           2.42201757E-03         716.969482E-06           -42.9291954E-03            2.89134908E-06          43.6461716E-03         -716.969482E-06           -43.8811417E-03           -1.427019E-06            46.0681763E-03            0.                     265.586609E+06           999.102051E+12            27.9373264E-06           43.2406387E-03 
                  37.E+03                  25.7026787               26.0677681              365.096252E-03            51.4389267E-03          412.510223E-03             4.35643291E+06        -342.618744E+03           526.734985E+06           262.783722E+06           452.401917E+06             1.48882604E-03        -954.167114E-06            -4.45401382E-06           2.44129348E-03         725.610107E-06           -44.2155075E-03          505.824554E-09            44.9411125E-03         -725.610107E-06           -45.1696701E-03           -3.949157E-06            47.3824158E-03            0.                     267.242096E+06             1.02887857E+15          27.923378E-06            43.2199745E-03 
                  38.E+03                  25.6902962               26.0657959              375.50293E-03             52.9296799E-03          412.793243E-03             4.36187983E+06        -353.048248E+03           529.976807E+06           264.424438E+06           455.204559E+06             1.49075437E-03        -956.251648E-06            -4.58969975E-06           2.46024609E-03         734.155396E-06           -45.503521E-03            -2.03697705E-06          46.2376976E-03         -734.155396E-06           -46.4597855E-03           -6.62612724E-06          48.6979294E-03            0.                     268.860687E+06             1.05869365E+15          27.9099255E-06           43.2000618E-03 
                  39.E+03                  25.6783352               26.0642605              385.919403E-03            54.4223213E-03          413.06662E-03              4.36662197E+06        -363.407745E+03           533.150024E+06           266.030487E+06           457.948364E+06             1.49264789E-03        -958.20813E-06             -4.72435904E-06           2.47888279E-03         742.606567E-06           -46.7932434E-03           -4.73414564E-06          47.5358467E-03         -742.606567E-06           -47.7514496E-03           -9.4549036E-06           50.0147324E-03            0.                     270.442963E+06             1.08854675E+15          27.8969231E-06           43.180809E-03  
                  40.E+03                  25.6667709               26.0631065              396.343323E-03            55.9165497E-03          413.330933E-03             4.37067175E+06        -373.501251E+03           536.256897E+06           267.602539E+06           460.635437E+06             1.4942143E-03         -960.040588E-06            -4.85563564E-06           2.4972198E-03          750.966248E-06           -48.084362E-03            -7.58189726E-06          48.8353271E-03         -750.966248E-06           -49.0443916E-03          -12.4375801E-06           51.3325462E-03            0.                     271.993042E+06             1.11843085E+15          27.8843708E-06           43.1621971E-03 
                  41.E+03                  25.6556072               26.0623856              406.776001E-03            57.4123917E-03          413.585846E-03             4.37401915E+06        -383.530487E+03           539.301147E+06           269.142395E+06           463.268768E+06             1.49584985E-03        -961.756592E-06            -4.98582792E-06           2.51526952E-03         759.238037E-06           -49.3769455E-03          -10.581687E-06            50.1361771E-03         -759.238037E-06           -50.3386993E-03          -15.5667076E-06           52.6514435E-03            0.                     273.510956E+06             1.14834809E+15          27.8722553E-06           43.144249E-03  
                  42.E+03                  25.6448479               26.0620537              417.215393E-03            58.9096184E-03          413.832123E-03             4.37683105E+06        -393.552002E+03           542.284119E+06           270.651398E+06           465.849548E+06             1.49722457E-03        -963.362854E-06            -5.11624241E-06           2.53303409E-03         767.421814E-06           -50.6707573E-03          -13.7342138E-06           51.4381828E-03         -767.421814E-06           -51.6341171E-03          -18.8474083E-06           53.9712105E-03            0.                     274.996216E+06             1.17829239E+15          27.8605442E-06           43.1269112E-03 
                  43.E+03                  25.6344185               26.0620804              427.662384E-03            60.4083138E-03          414.070312E-03             4.37906599E+06        -403.576508E+03           545.20874E+06            272.13089E+06            468.380341E+06             1.49869025E-03        -964.866577E-06            -5.24655104E-06           2.55052662E-03         775.520447E-06           -51.965889E-03           -17.0347061E-06           52.7414017E-03         -775.520447E-06           -52.930748E-03           -22.2817764E-06           55.291935E-03             0.                     276.452026E+06             1.20826626E+15          27.849226E-06            43.1101341E-03 
                  44.E+03                  25.6243439               26.062458               438.114929E-03            61.9081688E-03          414.300751E-03             4.3807683E+06         -413.529999E+03           548.077393E+06           273.581451E+06           470.863068E+06             1.49986398E-03        -966.267761E-06            -5.37588882E-06           2.56775999E-03         783.536438E-06           -53.2620659E-03          -20.4904938E-06           54.04562E-03           -783.536438E-06           -54.2283363E-03          -25.866087E-06            56.613369E-03             0.                     277.880981E+06             1.23826361E+15          27.8382721E-06           43.0939217E-03 
                  45.E+03                  25.6146164               26.0631905              448.573975E-03            63.4092407E-03          414.522888E-03             4.38183594E+06        -423.26825E+03            550.891968E+06           275.004242E+06           473.299561E+06             1.50106907E-03        -967.573486E-06            -5.50241041E-06           2.58474231E-03         791.472107E-06           -54.5593491E-03          -24.0913372E-06           55.350811E-03          -791.472107E-06           -55.5269318E-03          -29.59161E-06             57.9355698E-03            0.                     279.281769E+06             1.26828468E+15          27.8277111E-06           43.07827E-03   
                  46.E+03                  25.6052246               26.0642624              459.038116E-03            64.9113312E-03          414.73764E-03              4.38249826E+06        -432.998993E+03           553.653992E+06           276.400604E+06           475.690887E+06             1.50209117E-03        -968.789124E-06            -5.62889528E-06           2.601475E-03           799.328186E-06           -55.8575516E-03          -27.8375816E-06           56.6568794E-03         -799.328186E-06           -56.8263321E-03          -33.4663773E-06           59.2583542E-03            0.                     280.654816E+06             1.29832673E+15          27.8175068E-06           43.0631676E-03 
                  47.E+03                  25.5961304               26.0656433              469.508698E-03            66.4146271E-03          414.945618E-03             4.382689E+06          -442.678986E+03           556.365967E+06           277.771423E+06           478.039215E+06             1.5032953E-03         -969.918579E-06            -5.7548604E-06            2.61797237E-03         807.107666E-06           -57.1568298E-03          -31.7315578E-06           57.963932E-03          -807.107666E-06           -58.1267509E-03          -37.4863129E-06           60.5819092E-03            0.                     282.003601E+06             1.32839262E+15          27.8076229E-06           43.0485191E-03 
                  48.E+03                  25.5873337               26.0673199              479.983002E-03            67.9187088E-03          415.146515E-03             4.38240385E+06        -452.261261E+03           559.029358E+06           279.117126E+06           480.345978E+06             1.50408244E-03        -970.963989E-06            -5.87944698E-06           2.63424182E-03         814.811768E-06           -58.4568253E-03          -35.7733803E-06           59.271637E-03          -814.811768E-06           -59.4277763E-03          -41.6486282E-06           61.9058838E-03            0.                     283.327972E+06             1.35847437E+15          27.7980766E-06           43.034359E-03  
                  49.E+03                  25.5788536               26.0693111              490.462067E-03            69.4236755E-03          415.340485E-03             4.38167286E+06        -461.85675E+03            561.646057E+06           280.439117E+06           482.612701E+06             1.50496984E-03        -971.93042E-06             -6.00401831E-06           2.65028858E-03         822.442932E-06           -59.7576332E-03          -39.9565315E-06           60.5800743E-03         -822.442932E-06           -60.7295647E-03          -45.9585571E-06           63.2303581E-03            0.                     284.628235E+06             1.38857365E+15          27.7888565E-06           43.02071E-03   
                  50.E+03                  25.5706425               26.0715828              500.946289E-03            70.9295502E-03          415.528076E-03             4.38066816E+06        -471.597504E+03           564.217346E+06           281.738159E+06           484.84021E+06              1.50588107E-03        -972.821045E-06            -6.13074398E-06           2.66611767E-03         830.002625E-06           -61.0592575E-03          -44.2896271E-06           61.8892632E-03         -830.002625E-06           -62.0321007E-03          -50.417263E-06            64.5553741E-03            0.                     285.905365E+06             1.4186914E+15           27.7799339E-06           43.0074997E-03 
                  51.E+03                  25.5626907               26.074131               511.433136E-03            72.436058E-03           415.709961E-03             4.3792243E+06         -481.134247E+03           566.744873E+06           283.014648E+06           487.030334E+06             1.50651252E-03        -973.638245E-06            -6.25482798E-06           2.68173957E-03         837.491943E-06           -62.3614807E-03          -48.7671928E-06           63.1989822E-03         -837.491943E-06           -63.3351288E-03          -55.0221863E-06           65.8807068E-03            0.                     287.161041E+06             1.44882178E+15          27.7712975E-06           42.9946976E-03 
                  52.E+03                  25.5550156               26.0769348              521.925537E-03            73.9434967E-03          415.885254E-03             4.37737322E+06        -490.74649E+03            569.230774E+06           284.269806E+06           489.184631E+06             1.50742853E-03        -974.387329E-06            -6.37956715E-06           2.69715953E-03         844.914246E-06           -63.6645164E-03          -53.3878365E-06           64.5094223E-03         -844.914246E-06           -64.6389084E-03          -59.7654152E-06           67.2065887E-03            0.                     288.395233E+06             1.47897041E+15          27.7629585E-06           42.9823494E-03 
                  53.E+03                  25.5475883               26.0800037              532.419983E-03            75.4513931E-03          416.055023E-03             4.37524605E+06        -500.450012E+03           571.674866E+06           285.504364E+06           491.303131E+06             1.50789225E-03        -975.071533E-06            -6.50585604E-06           2.71237636E-03         852.267883E-06           -64.9680023E-03          -58.1551552E-06           65.8202515E-03         -852.267883E-06           -65.9430771E-03          -64.6655731E-06           68.5326385E-03            0.                     289.607025E+06             1.50912821E+15          27.7548904E-06           42.9703903E-03 
                  54.E+03                  25.5404015               26.0833206              542.917603E-03            76.959877E-03           416.21936E-03              4.37273312E+06        -510.010254E+03           574.07959E+06            286.718414E+06           493.387756E+06             1.50849557E-03        -975.691162E-06            -6.63027096E-06           2.72740412E-03         859.555786E-06           -66.2720337E-03          -63.0706787E-06           67.1315765E-03         -859.555786E-06           -67.2477417E-03          -69.6997223E-06           69.8589935E-03            0.                     290.800751E+06             1.53929746E+15          27.7470779E-06           42.9588242E-03 
                  55.E+03                  25.5334606               26.0868759              553.41864E-03             78.4689255E-03          416.377899E-03             4.36987972E+06        -519.63147E+03            576.446106E+06           287.912842E+06           495.439697E+06             1.50904727E-03        -976.249207E-06            -6.75522423E-06           2.74224615E-03         866.779785E-06           -67.5765762E-03          -68.1297379E-06           68.4433441E-03         -866.779785E-06           -68.5528259E-03          -74.8859024E-06           71.1856079E-03            0.                     291.974976E+06             1.56947851E+15          27.7395401E-06           42.9476547E-03 
                  56.E+03                  25.5267525               26.0906754              563.922241E-03            79.9784546E-03          416.53125E-03              4.36676216E+06        -529.257507E+03           578.775085E+06           289.08844E+06            497.459198E+06             1.50950491E-03        -976.750244E-06            -6.88042593E-06           2.75690341E-03         873.940308E-06           -68.881546E-03           -73.3351364E-06           69.7554703E-03         -873.940308E-06           -69.8582993E-03          -80.2122498E-06           72.5124054E-03            0.                     293.128967E+06             1.59966862E+15          27.7322578E-06           42.9368439E-03 
                  57.E+03                  25.5202579               26.0946884              574.427856E-03            81.488327E-03           416.679688E-03             4.36334801E+06        -538.853027E+03           581.067505E+06           290.245605E+06           499.447479E+06             1.50988364E-03        -977.196289E-06            -7.00512123E-06           2.7713809E-03          881.038269E-06           -70.1868668E-03          -78.6806946E-06           71.0679016E-03         -881.038269E-06           -71.1640625E-03          -85.6861038E-06           73.8392944E-03            0.                     294.265076E+06             1.62986624E+15          27.7252007E-06           42.9263916E-03 
                  58.E+03                  25.5139828               26.0989132              584.936768E-03            82.9988022E-03          416.823273E-03             4.35965109E+06        -548.532776E+03           583.325684E+06           291.384949E+06           501.40625E+06              1.51046777E-03        -977.587158E-06            -7.13096619E-06           2.78569221E-03         888.076599E-06           -71.4927444E-03          -84.1722336E-06           72.3808136E-03         -888.076599E-06           -72.4703217E-03          -91.3027878E-06           75.1665192E-03            0.                     295.385223E+06             1.66007602E+15          27.71838E-06             42.9162788E-03 
                  59.E+03                  25.5079136               26.1033649              595.447205E-03            84.5094452E-03          416.961823E-03             4.35565186E+06        -558.121765E+03           585.549316E+06           292.506805E+06           503.335388E+06             1.51065385E-03        -977.927307E-06            -7.25559568E-06           2.79983211E-03         895.054993E-06           -72.7988129E-03          -89.8078995E-06           73.6938629E-03         -895.054993E-06           -73.7767334E-03          -97.067215E-06            76.4936981E-03            0.                     296.48642E+06              1.69028878E+15          27.7117977E-06           42.9065323E-03 
                  60.E+03                  25.5020542               26.1080132              605.95929E-03             86.0203934E-03          417.095795E-03             4.35139704E+06        -567.69574E+03            587.739807E+06           293.611938E+06           505.236023E+06             1.51094913E-03        -978.219421E-06            -7.37999296E-06           2.8138051E-03          901.974243E-06           -74.1051407E-03          -95.5954895E-06           75.0071106E-03         -901.974243E-06           -75.0833511E-03         -102.975052E-06            77.8209229E-03            0.                     297.570679E+06             1.7205081E+15           27.7054176E-06           42.8970909E-03 
                  61.E+03                  25.4963799               26.112854               616.473206E-03            87.5316238E-03          417.225403E-03             4.34696007E+06        -577.477234E+03           589.898071E+06           294.700745E+06           507.108917E+06             1.51124573E-03        -978.463623E-06            -7.50715494E-06           2.82761836E-03         908.835999E-06           -75.4117508E-03         -101.521965E-06            76.3206024E-03         -908.835999E-06           -76.3902435E-03         -109.034706E-06            79.1482162E-03            0.                     298.639465E+06             1.75073278E+15          27.6992683E-06           42.8879471E-03 
                  62.E+03                  25.4909019               26.1178894              626.989136E-03            89.0432129E-03          417.350708E-03             4.34224129E+06        -587.188232E+03           592.025269E+06           295.773621E+06           508.95517E+06              1.5115639E-03         -978.662292E-06            -7.63353777E-06           2.8412776E-03          915.641663E-06           -76.7187042E-03         -107.597206E-06            77.634346E-03          -915.641663E-06           -77.6973648E-03         -115.231377E-06            80.4756317E-03            0.                     299.692932E+06             1.78096402E+15          27.6933041E-06           42.8791275E-03 
                  63.E+03                  25.4856071               26.1231136              637.505859E-03            90.5548172E-03          417.471649E-03             4.33723116E+06        -596.764221E+03           594.12207E+06            296.831024E+06           510.775299E+06             1.51162171E-03        -978.818787E-06            -7.75802994E-06           2.85478115E-03         922.391296E-06           -78.0257111E-03         -113.812973E-06            78.9481049E-03         -922.391296E-06           -79.0045395E-03         -121.572983E-06            81.802887E-03             0.                     300.730072E+06             1.81119633E+15          27.6875553E-06           42.8706131E-03 
                  64.E+03                  25.4805031               26.1285172              648.023743E-03            92.0666046E-03          417.588593E-03             4.33199978E+06        -606.367493E+03           596.188843E+06           297.873535E+06           512.569641E+06             1.51179099E-03        -978.93457E-06             -7.88284206E-06           2.86813474E-03         929.085632E-06           -79.3329086E-03         -120.173088E-06            80.2619629E-03         -929.085632E-06           -80.311821E-03          -128.05545E-06             83.1301117E-03            0.                     301.752075E+06             1.84143233E+15          27.6820068E-06           42.8623886E-03 
                  65.E+03                  25.4755573               26.1341038              658.544189E-03            93.5787659E-03          417.701538E-03             4.32664299E+06        -616.196228E+03           598.227173E+06           298.901459E+06           514.339539E+06             1.51215374E-03        -979.010254E-06            -8.01064682E-06           2.88134336E-03         935.726501E-06           -80.6404114E-03         -126.683502E-06            81.5761566E-03         -935.726501E-06           -81.6194229E-03         -134.696945E-06            84.4574966E-03            0.                     302.760529E+06             1.87167549E+15          27.6766376E-06           42.8544197E-03 
                  66.E+03                  25.4707756               26.1398392              669.064941E-03            95.0908813E-03          417.81073E-03              4.32098484E+06        -625.862E+03              600.237427E+06           299.915192E+06           516.085327E+06             1.51211882E-03        -979.048523E-06            -8.13627052E-06           2.89440894E-03         942.31366E-06            -81.9479446E-03         -133.334183E-06            82.8902664E-03         -942.31366E-06            -82.9269943E-03         -141.473022E-06            85.7846603E-03            0.                     303.75415E+06              1.90191746E+15          27.6714458E-06           42.8467293E-03 
                  67.E+03                  25.4661694               26.1457558              679.585449E-03            96.6029434E-03          417.915955E-03             4.31504107E+06        -635.395264E+03           602.220337E+06           300.914917E+06           517.807678E+06             1.51204693E-03        -979.051208E-06            -8.26014805E-06           2.90733194E-03         948.847595E-06           -83.2554092E-03         -140.132385E-06            84.2042542E-03         -948.847595E-06           -84.2344437E-03         -148.393921E-06            87.1116028E-03            0.                     304.733765E+06             1.93215895E+15          27.6664391E-06           42.8393135E-03 
                  68.E+03                  25.4617271               26.1518364              690.108032E-03            98.1151657E-03          418.01767E-03              4.3090477E+06         -645.276978E+03           604.176331E+06           301.901306E+06           519.506775E+06             1.51222646E-03        -979.019348E-06            -8.38864803E-06           2.92011833E-03         955.330017E-06           -84.5630798E-03         -147.077484E-06            85.5184021E-03         -955.330017E-06           -85.5420914E-03         -155.467773E-06            88.4385223E-03            0.                     305.699982E+06             1.96240318E+15          27.6616116E-06           42.8321571E-03 
                  69.E+03                  25.4574242               26.1580524              700.630493E-03            99.6274033E-03          418.115967E-03             4.30285501E+06        -655.140747E+03           606.106384E+06           302.874481E+06           521.183594E+06             1.51224029E-03        -978.955078E-06            -8.51683235E-06           2.93276882E-03         961.76062E-06            -85.8707657E-03         -154.168579E-06            86.8325195E-03         -961.76062E-06            -86.8497162E-03         -162.6819E-06              89.7653122E-03            0.                     306.653168E+06             1.99264824E+15          27.6569366E-06           42.8252258E-03 
                  70.E+03                  25.45327                 26.1644192              711.154114E-03           101.139694E-03           418.210938E-03             4.29641008E+06        -664.92749E+03            608.011841E+06           303.834778E+06           522.839294E+06             1.51230264E-03        -978.858215E-06            -8.64397526E-06           2.94529033E-03         968.141602E-06           -87.1785431E-03         -161.403915E-06            88.1466827E-03         -968.141602E-06           -88.1574249E-03         -170.050644E-06            91.0919647E-03            0.                     307.594574E+06             2.02289414E+15          27.6524258E-06           42.818531E-03  
                  71.E+03                  25.4492702               26.1709538              721.67749E-03            102.651855E-03           418.302246E-03             4.28975868E+06        -674.674011E+03           609.892151E+06           304.782684E+06           524.473389E+06             1.51214945E-03        -978.732117E-06            -8.77067947E-06           2.95768166E-03         974.471924E-06           -88.4862213E-03         -168.782196E-06            89.4606705E-03         -974.471924E-06           -89.4649353E-03         -177.555481E-06            92.4183655E-03            0.                     308.522186E+06             2.05313754E+15          27.6480904E-06           42.8121071E-03 
                  72.E+03                  25.4454136               26.177618               732.200623E-03           104.163857E-03           418.390381E-03             4.28295422E+06        -684.428528E+03           611.747681E+06           305.718445E+06           526.086243E+06             1.51199389E-03        -978.579041E-06            -8.89760208E-06           2.96994257E-03         980.751709E-06           -89.7937698E-03         -176.312057E-06            90.7745209E-03         -980.751709E-06           -90.7723618E-03         -185.210022E-06            93.7444611E-03            0.                     309.437042E+06             2.08337665E+15          27.6438923E-06           42.8058815E-03 
                  73.E+03                  25.4416924               26.1844177              742.72583E-03            105.676086E-03           418.475586E-03             4.2761116E+06         -694.543518E+03           613.580627E+06           306.642334E+06           527.679504E+06             1.51222849E-03        -978.396545E-06            -9.02904892E-06           2.98208332E-03         986.984009E-06           -91.1015701E-03         -183.9879E-06              92.088562E-03          -986.984009E-06           -92.0799637E-03         -193.019165E-06            95.0706329E-03            0.                     310.342285E+06             2.11362171E+15          27.6398411E-06           42.7998772E-03 
                  74.E+03                  25.4380875               26.1913414              753.251221E-03           107.188225E-03           418.557953E-03             4.26903915E+06        -704.551514E+03           615.390747E+06           307.554626E+06           529.253174E+06             1.51215148E-03        -978.187561E-06            -9.15921211E-06           2.99410272E-03         993.168579E-06           -92.4092941E-03         -191.812393E-06            93.4024429E-03         -993.168579E-06           -93.3874664E-03         -200.975693E-06            96.3965759E-03            0.                     311.23526E+06              2.14386439E+15          27.6359386E-06           42.7940979E-03 
                  75.E+03                  25.4346313               26.1984119              763.775757E-03           108.700058E-03           418.636871E-03             4.26167011E+06        -714.236511E+03           617.177856E+06           308.455475E+06           530.807251E+06             1.51184344E-03        -977.95575E-06             -9.28503418E-06           3.00600028E-03         999.304443E-06           -93.7167816E-03         -199.783356E-06            94.7161102E-03         -999.304443E-06           -94.6947403E-03         -209.068634E-06            97.7220993E-03            0.                     312.115601E+06             2.17410159E+15          27.6321774E-06           42.7885284E-03 
                  76.E+03                  25.4313049               26.2056065              774.299011E-03           110.211647E-03           418.712921E-03             4.25414515E+06        -723.885986E+03           618.943237E+06           309.345459E+06           532.342651E+06             1.51156378E-03        -977.701965E-06            -9.41053772E-06           3.01777577E-03           1.0053916E-03          -95.0240631E-03         -207.893784E-06            96.0294571E-03           -1.0053916E-03          -96.0017853E-03         -217.307114E-06            99.047226E-03             0.                     312.984558E+06             2.20433307E+15          27.6285629E-06           42.7831726E-03 
                  77.E+03                  25.4280987               26.2129154              784.823059E-03           111.723167E-03           418.786224E-03             4.2466116E+06         -733.914001E+03           620.687012E+06           310.224518E+06           533.859253E+06             1.5115521E-03         -977.424438E-06            -9.54085445E-06           3.02943778E-03           1.01143205E-03         -96.3313599E-03         -216.159973E-06            97.3427887E-03           -1.01143205E-03         -97.3087769E-03         -225.695312E-06           100.372215E-03             0.                     313.844116E+06             2.23456359E+15          27.6250725E-06           42.7780037E-03 
                  78.E+03                  25.4249992               26.2203426              795.346436E-03           113.234482E-03           418.857086E-03             4.23887396E+06        -743.837524E+03           622.409851E+06           311.093048E+06           535.357971E+06             1.51129425E-03        -977.125916E-06            -9.67003918E-06           3.04098535E-03           1.01742589E-03         -97.6384506E-03         -224.566086E-06            98.6558609E-03           -1.01742589E-03         -98.6155548E-03         -234.235535E-06           101.696846E-03             0.                     314.692719E+06             2.26479006E+15          27.6217079E-06           42.7730179E-03 
                  79.E+03                  25.4220276               26.2279015              805.870178E-03           114.745689E-03           418.925079E-03             4.23101425E+06        -753.830505E+03           624.112732E+06           311.951141E+06           536.839478E+06             1.51122499E-03        -976.806519E-06            -9.79978657E-06           3.05242372E-03           1.02337456E-03         -98.9454956E-03         -233.122375E-06            99.9688492E-03           -1.02337456E-03         -99.9223099E-03         -242.924072E-06           103.021286E-03             0.                     315.531738E+06             2.2950139E+15           27.6184769E-06           42.7682343E-03 
                  80.E+03                  25.4191685               26.2355633              816.39386E-03            116.256783E-03           418.990326E-03             4.22306204E+06        -763.936523E+03           625.795227E+06           312.799438E+06           538.303528E+06             1.51105738E-03        -976.468689E-06            -9.93122387E-06           3.06375122E-03           1.02927756E-03        -100.252411E-03          -241.827927E-06           101.281685E-03            -1.02927756E-03        -101.228874E-03          -251.763489E-06           104.345428E-03             0.                     316.359619E+06             2.32523561E+15          27.6153736E-06           42.7636108E-03 
                  81.E+03                  25.4164124               26.2433243              826.916016E-03           117.767456E-03           419.053558E-03             4.21491814E+06        -773.898499E+03           627.458374E+06           313.637817E+06           539.750793E+06             1.51067793E-03        -976.113647E-06           -10.06075E-06              3.07496881E-03           1.03513455E-03        -101.559021E-03          -250.678741E-06           102.594185E-03            -1.03513455E-03        -102.535164E-03          -260.742371E-06           105.669136E-03             0.                     317.177429E+06             2.35544896E+15          27.6123753E-06           42.7591782E-03 
                  82.E+03                  25.4137535               26.251194               837.43634E-03            119.277733E-03           419.113892E-03             4.20653725E+06        -783.704529E+03           629.102356E+06           314.4664E+06             541.181824E+06             1.51028907E-03        -975.743164E-06           -10.1881886E-06            3.08607984E-03           1.04094613E-03        -102.865326E-03          -259.676941E-06           103.906281E-03            -1.04094613E-03        -103.841064E-03          -269.870514E-06           106.992363E-03             0.                     317.985809E+06             2.38565445E+15          27.6094971E-06           42.7549095E-03 
                  83.E+03                  25.4112225               26.2591782              847.958435E-03           120.787987E-03           419.171997E-03             4.19820595E+06        -793.905029E+03           630.7276E+06             315.285583E+06           542.596497E+06             1.5102551E-03         -975.353943E-06           -10.3207312E-06            3.09708643E-03           1.04671395E-03        -104.171638E-03          -268.830444E-06           105.21833E-03             -1.04671395E-03        -105.14698E-03           -279.150909E-06           108.315437E-03             0.                     318.785858E+06             2.41585994E+15          27.606741E-06            42.7508354E-03 
                  84.E+03                  25.4087715               26.2672539              858.480164E-03           122.298126E-03           419.227844E-03             4.18983507E+06        -804.264526E+03           632.334534E+06           316.095673E+06           543.995361E+06             1.5101335E-03         -974.949585E-06           -10.4554853E-06            3.10799193E-03           1.05243826E-03        -105.477859E-03          -278.127625E-06           106.530266E-03            -1.05243826E-03        -106.45282E-03           -288.582642E-06           109.63826E-03              0.                     319.57608E+06              2.44606256E+15          27.6040802E-06           42.7468719E-03 
                  85.E+03                  25.406414                26.2754211              869.000366E-03           123.807846E-03           419.281708E-03             4.18121004E+06        -814.315979E+03           633.92395E+06            316.896729E+06           545.379333E+06             1.50976062E-03        -974.531738E-06           -10.5862083E-06            3.11879659E-03           1.05811906E-03        -106.783737E-03          -287.574036E-06           107.841858E-03            -1.05811906E-03        -107.758286E-03          -298.166199E-06           110.960648E-03             0.                     320.357269E+06             2.4762578E+15           27.6015224E-06           42.743103E-03  
                  86.E+03                  25.4041748               26.2837009              879.519348E-03           125.3172E-03             419.333038E-03             4.17235613E+06        -824.181519E+03           635.495605E+06           317.688843E+06           546.748047E+06             1.50932276E-03        -974.101624E-06           -10.7144804E-06            3.12950015E-03           1.06375599E-03        -108.089294E-03          -297.172943E-06           109.153053E-03            -1.06375599E-03        -109.063362E-03          -307.88382E-06            112.282555E-03             0.                     321.129089E+06             2.50644374E+15          27.5990849E-06           42.7394714E-03 
                  87.E+03                  25.4020233               26.2920609              890.036255E-03           126.826019E-03           419.382141E-03             4.16339397E+06        -834.046021E+03           637.049927E+06           318.472473E+06           548.101868E+06             1.5088352E-03         -973.660889E-06           -10.8425341E-06            3.14010072E-03           1.0693481E-03         -109.39444E-03           -306.908051E-06           110.463799E-03            -1.0693481E-03         -110.368088E-03          -317.757965E-06           113.603874E-03             0.                     321.891174E+06             2.53662133E+15          27.596756E-06            42.7360153E-03 
                  88.E+03                  25.3999615               26.300518               900.552795E-03           128.334656E-03           419.429352E-03             4.15447044E+06        -844.194519E+03           638.586853E+06           319.247528E+06           549.440613E+06             1.50861824E-03        -973.20697E-06            -10.9745855E-06            3.15060425E-03           1.07489765E-03        -110.699432E-03          -316.801483E-06           111.7743E-03              -1.07489765E-03        -111.672638E-03          -327.773407E-06           114.924919E-03             0.                     322.646393E+06             2.5667932E+15           27.5945072E-06           42.7326889E-03 
                  89.E+03                  25.3979797               26.3090458              911.06842E-03            129.842972E-03           419.47467E-03              4.14543581E+06        -854.400513E+03           640.108215E+06           320.014221E+06           550.765869E+06             1.50830317E-03        -972.742004E-06           -11.1071205E-06            3.16101527E-03           1.08040476E-03        -112.004135E-03          -326.838348E-06           113.084549E-03            -1.08040476E-03        -112.976875E-03          -337.950653E-06           116.245567E-03             0.                     323.393402E+06             2.59695888E+15          27.5923595E-06           42.729496E-03  
                  90.E+03                  25.3960934               26.3176746              921.582458E-03           131.350784E-03           419.517761E-03             4.13622999E+06        -864.440002E+03           641.612732E+06           320.772827E+06           552.076904E+06             1.50783575E-03        -972.266968E-06           -11.2376728E-06            3.17133117E-03           1.08586979E-03        -113.308495E-03          -337.025177E-06           114.394348E-03            -1.08586979E-03        -114.280769E-03          -348.263428E-06           117.565689E-03             0.                     324.131866E+06             2.62711596E+15          27.5903053E-06           42.7264519E-03 
                  91.E+03                  25.3942871               26.3263855              932.096497E-03           132.858414E-03           419.559021E-03             4.12703991E+06        -874.708496E+03           643.101807E+06           321.523254E+06           553.37439E+06              1.50763333E-03        -971.782288E-06           -11.3712559E-06            3.18155503E-03           1.09129345E-03        -114.612679E-03          -347.360962E-06           115.703941E-03            -1.09129345E-03        -115.584457E-03          -358.735199E-06           118.885521E-03             0.                     324.862579E+06             2.65726852E+15          27.5883446E-06           42.7235527E-03 
                  92.E+03                  25.3925591               26.3351669              942.609192E-03           134.365723E-03           419.598572E-03             4.11778593E+06        -885.041016E+03           644.575378E+06           322.266113E+06           554.658569E+06             1.50728047E-03        -971.289124E-06           -11.5054979E-06            3.1916852E-03            1.0966754E-03         -115.91658E-03           -357.852295E-06           117.013237E-03            -1.0966754E-03         -116.887848E-03          -369.363007E-06           120.204941E-03             0.                     325.585052E+06             2.68741465E+15          27.5864677E-06           42.7207565E-03 
                  93.E+03                  25.3909016               26.3440208              953.119507E-03           135.872482E-03           419.636414E-03             4.10833788E+06        -895.172974E+03           646.033752E+06           323.00116E+06            555.929749E+06             1.50677264E-03        -970.787842E-06           -11.6372976E-06            3.20172811E-03           1.10201633E-03        -117.220039E-03          -368.493622E-06           118.322075E-03            -1.10201633E-03        -118.190811E-03          -380.125824E-06           121.523796E-03             0.                     326.300507E+06             2.71754932E+15          27.5846729E-06           42.7181129E-03 
                  94.E+03                  25.3893414               26.3529758              963.628174E-03           137.378738E-03           419.67218E-03              4.09871769E+06        -905.161987E+03           647.47699E+06            323.728882E+06           557.187927E+06             1.50625038E-03        -970.280151E-06           -11.7670393E-06            3.21167994E-03           1.10731578E-03        -118.523079E-03          -379.27298E-06            119.630379E-03            -1.10731578E-03        -119.493355E-03          -391.043488E-06           122.842079E-03             0.                     327.007599E+06             2.74767423E+15          27.5829735E-06           42.7155838E-03 
                  95.E+03                  25.3878517               26.3619843              974.134521E-03           138.884369E-03           419.706177E-03             4.0890379E+06         -915.16449E+03            648.905396E+06           324.449219E+06           558.433228E+06             1.50566542E-03        -969.767822E-06           -11.8971329E-06            3.22153878E-03           1.11257303E-03        -119.825668E-03          -390.199951E-06           120.938225E-03            -1.11257303E-03        -120.79541E-03           -402.097595E-06           124.159737E-03             0.                     327.706207E+06             2.77778864E+15          27.581356E-06            42.7131805E-03 
                  96.E+03                  25.3864307               26.3710709              984.640991E-03           140.389938E-03           419.738678E-03             4.07950211E+06        -925.66449E+03            650.319702E+06           325.162323E+06           559.666443E+06             1.50554764E-03        -969.246643E-06           -12.0336952E-06            3.23131442E-03           1.11779094E-03        -121.128128E-03          -401.291534E-06           122.245903E-03            -1.11779094E-03        -122.097359E-03          -413.321655E-06           125.477211E-03             0.                     328.400482E+06             2.807899E+15            27.5798035E-06           42.7108879E-03 
                  97.E+03                  25.3850689               26.3802147              995.146851E-03           141.895203E-03           419.769592E-03             4.06991196E+06        -936.265015E+03           651.720276E+06           325.868042E+06           560.887695E+06             1.50526643E-03        -968.717651E-06           -12.1714258E-06            3.24100995E-03           1.1229701E-03         -122.430367E-03          -412.528381E-06           123.553314E-03            -1.1229701E-03         -123.399094E-03          -424.692871E-06           126.794342E-03             0.                     329.087708E+06             2.83800364E+15          27.578331E-06            42.7087021E-03 
                  98.E+03                  25.3837929               26.3894463                1.00565076             143.399933E-03           419.79895E-03              4.06012011E+06        -946.546997E+03           653.107056E+06           326.566895E+06           562.097107E+06             1.5047189E-03         -968.18457E-06            -12.3050308E-06            3.25062132E-03           1.12810981E-03        -123.732117E-03          -423.910797E-06           124.86026E-03             -1.12810981E-03        -124.700317E-03          -436.218903E-06           128.110855E-03             0.                     329.766663E+06             2.86809921E+15          27.5769386E-06           42.706646E-03  
                  99.E+03                  25.3825798               26.398737                 1.01615274             144.904114E-03           419.82663E-03              4.05021191E+06        -956.7005E+03             654.47998E+06            327.259186E+06           563.294739E+06             1.50418484E-03        -967.648682E-06           -12.4371624E-06            3.26014471E-03           1.13320971E-03        -125.033501E-03          -435.452423E-06           126.166702E-03            -1.13320971E-03        -126.001106E-03          -447.886993E-06           129.426849E-03             0.                     330.438019E+06             2.89818287E+15          27.5756283E-06           42.704689E-03  
                 100.E+03                  25.3814316               26.4080791                1.02665162             146.407715E-03           419.852875E-03             4.04021978E+06        -966.861511E+03           655.839355E+06           327.944733E+06           564.480652E+06             1.5035758E-03         -967.110107E-06           -12.5690928E-06            3.26958442E-03           1.13826919E-03        -126.334312E-03          -447.140533E-06           127.472595E-03            -1.13826919E-03        -127.301407E-03          -459.697571E-06           130.742172E-03             0.                     331.102661E+06             2.92825365E+15          27.5743771E-06           42.7028313E-03 




