
                     X                      Cbar_L                 Cbar_total               Cbar_trap                   PEEQ                  PSI_Cbar_L                  S_11                     S_12                     S_22                     S_33                   S_Mises                   dPEEQ                eps_elastic_11           eps_elastic_12           eps_elastic_22           eps_elastic_33           eps_plastic_11           eps_plastic_12           eps_plastic_22           eps_plastic_33            eps_total_11             eps_total_12             eps_total_22             eps_total_33          hydrostatic_stress             rho_d                   theta_L                 theta_trap      

                   0.                       0.                       0.                       0.                       0.                       0.                       0.                       0.                       0.                       0.                       0.                       0.                       0.                       0.                       0.                       0.                       0.                       0.                       0.                       0.                       0.                       0.                       0.                       0.                       0.                       0.                       0.                       0.            
                   1.E+03                  27.                      27.0000343               37.1929207E-06            0.                     382.857178E-03           -34.293499E+03          -287.852264E+03           124.844185E+06            37.4429665E+06          110.992455E+06             0.                    -243.602203E-06            -3.7420795E-06          568.108032E-06             0.                       0.                       0.                       0.                       0.                    -243.602203E-06            -3.7420795E-06          568.108032E-06             0.                      54.0842896E+06           99.9999924E+09           29.3327942E-06           45.3027191E-03 
                   2.E+03                  27.0776634               27.0776978               37.2950516E-06            0.                     381.082001E-03           -70.7710037E+03         -573.667725E+03           249.613983E+06            74.8629684E+06          221.920517E+06             0.                    -487.069244E-06            -7.45770359E-06           1.13588166E-03           0.                       0.                       0.                       0.                       0.                    -487.069244E-06            -7.45770359E-06           1.13588166E-03           0.                     108.135384E+06            99.9999924E+09           29.4171619E-06           45.4271088E-03 
                   3.E+03                  27.2042809               27.2043171               37.4615021E-06            0.                     378.187897E-03          -109.417999E+03          -857.458008E+03           374.30957E+06            112.260033E+06           332.784332E+06             0.                    -730.401489E-06           -11.1469631E-06            1.70332193E-03           0.                       0.                       0.                       0.                       0.                    -730.401489E-06           -11.1469631E-06            1.70332193E-03           0.                     162.153397E+06            99.9999924E+09           29.5547256E-06           45.6298523E-03 
                   4.E+03                  27.3660545               27.3660927               37.6740799E-06            0.                     374.490204E-03          -150.222E+03               -1.13923001E+06         498.931061E+06           149.634232E+06           443.584045E+06             0.                    -973.598877E-06           -14.810008E-06             2.2704289E-03            0.                       0.                       0.                       0.                       0.                    -973.598877E-06           -14.810008E-06             2.2704289E-03            0.                     216.138336E+06            99.9999924E+09           29.7304726E-06           45.8887978E-03 
                   5.E+03                  27.5556355               27.5556698               37.923069E-06             0.                     370.156952E-03          -193.167999E+03            -1.41899908E+06         623.478455E+06           186.98558E+06            554.31958E+06              0.                      -1.21666205E-03         -18.4469681E-06            2.8372035E-03            0.                       0.                       0.                       0.                       0.                      -1.21666205E-03         -18.4469681E-06            2.8372035E-03            0.                     270.090302E+06            99.9999924E+09           29.9364319E-06           46.1920776E-03 
                   6.E+03                  27.8438587               27.8509426                7.08782959E-03         925.552795E-06           363.569092E-03            -5.82749987E+06          -1.02518606E+06         631.263611E+06           223.839798E+06           558.852661E+06           925.552795E-06            -1.31179249E-03         -13.3274155E-06            2.82929921E-03         181.044724E-06          -704.911682E-06           -78.2860565E-06          885.956482E-06          -181.044724E-06            -2.01670432E-03         -91.613533E-06             3.71525621E-03           0.                     283.09198E+06             18.6110573E+12           30.2495556E-06           46.652832E-03  
                   7.E+03                  27.0333214               27.0459805               12.6549225E-03            1.68692815E-03         382.095581E-03            -1.16716003E+06           1.41012597E+06         653.806335E+06           253.523422E+06           571.881042E+06           761.375305E-06            -1.36683071E-03          18.331646E-06             2.89049792E-03         288.658325E-06            -1.32377803E-03         -60.2915497E-06            1.61243629E-03        -288.658325E-06            -2.69060826E-03         -41.9599533E-06            4.5029335E-03            0.                     302.054291E+06            33.838562E+12            29.3689957E-06           45.3563423E-03 
                   8.E+03                  26.883213                26.9022522               19.0431499E-03            2.55372739E-03         385.526672E-03            -1.63626003E+06           1.15551996E+06         679.809448E+06           279.776276E+06           593.125488E+06           866.7995E-06              -1.44755983E-03          15.0217962E-06            2.98183703E-03         381.621918E-06            -2.04272938E-03         -66.511467E-06             2.42435145E-03        -381.621918E-06            -3.49028921E-03         -51.489769E-06             5.40618849E-03           0.                     319.316528E+06            51.1745491E+12           29.2059078E-06           45.1161194E-03 
                   9.E+03                  26.9134712               26.9398384               26.3662739E-03            3.53928924E-03         384.83493E-03             -5.01512384E+06         943.052979E+03           703.51001E+06            302.675781E+06           615.367737E+06           985.561951E-06            -1.53435421E-03          12.2597418E-06            3.07105947E-03         465.636566E-06            -2.87023044E-03         -96.1362E-06               3.33586717E-03        -465.636566E-06            -4.40458393E-03         -83.8764496E-06            6.40692663E-03           0.                     333.723541E+06            70.8857803E+12           29.2387886E-06           45.1643906E-03 
                  10.E+03                  26.7840652               26.8178482               33.7832718E-03            4.55688047E-03         387.792816E-03            -6.6773119E+06          875.357971E+03           725.059692E+06           321.926727E+06           634.799377E+06             1.01759088E-03          -1.6038661E-03           11.3795538E-06            3.15242481E-03         532.059692E-06            -3.73828363E-03        -113.147903E-06             4.2703433E-03         -532.059692E-06            -5.34215021E-03        -101.76844E-06              7.42276764E-03           0.                     346.769684E+06            91.2376251E+12           29.0982037E-06           44.9570656E-03 
                  11.E+03                  26.6164169               26.6578579               41.4363098E-03            5.62087774E-03         391.624695E-03            -5.99089193E+06           1.22624505E+06         746.792908E+06           339.669647E+06           652.657349E+06             1.06399739E-03          -1.6596483E-03           15.9410982E-06            3.23344684E-03         587.145447E-06            -4.65484333E-03        -121.529884E-06             5.24198961E-03        -587.145447E-06            -6.31449175E-03        -105.588577E-06             8.4754343E-03            0.                     360.157257E+06           112.51754E+12             28.9160709E-06           44.6884651E-03 
                  12.E+03                  26.506403                26.555748                49.3486595E-03            6.72175741E-03         394.139404E-03            -5.36394835E+06           1.57792389E+06         766.861694E+06           355.116486E+06           669.263611E+06             1.10087955E-03          -1.70978689E-03          20.5129604E-06            3.30967903E-03         633.335999E-06            -5.60999727E-03        -121.09877E-06              6.24333334E-03        -633.335999E-06            -7.31978321E-03        -100.5858E-06               9.55301189E-03           0.                     372.204742E+06           134.535141E+12            28.7965412E-06           44.5120506E-03 
                  13.E+03                  26.3826637               26.4403801               57.7183876E-03            7.8972373E-03          396.967712E-03            -5.21785593E+06           1.73944199E+06         785.840149E+06           368.920868E+06           685.416748E+06             1.17547977E-03          -1.75823081E-03          22.6128025E-06            3.38364577E-03         673.670654E-06            -6.63352585E-03        -127.57E-06                 7.30719519E-03        -673.670654E-06            -8.39175701E-03        -104.95726E-06             10.6908417E-03            0.                     383.181061E+06           158.044739E+12            28.6621132E-06           44.3135681E-03 
                  14.E+03                  26.2651024               26.3315506               66.444046E-03             9.12970543E-03         399.654877E-03            -5.38397217E+06           1.84091604E+06         803.701721E+06           381.204346E+06           700.926025E+06             1.23246992E-03          -1.80427897E-03          23.9319477E-06            3.45477796E-03         708.545654E-06            -7.71062374E-03        -133.744034E-06             8.41916847E-03        -708.545654E-06            -9.51490307E-03        -109.812363E-06            11.8739471E-03            0.                     393.174042E+06           182.694138E+12            28.5343971E-06           44.124939E-03  
                  15.E+03                  26.1545143               26.2301292               75.6123352E-03           10.4311886E-03          402.182465E-03            -5.8416481E+06            1.97329795E+06         820.703979E+06           392.282043E+06           715.978027E+06             1.3014822E-03           -1.84868705E-03          25.6528873E-06            3.52385974E-03         739.116333E-06            -8.85080242E-03        -143.533386E-06             9.58991814E-03        -739.116333E-06           -10.6994905E-03         -117.880585E-06            13.1137781E-03            0.                     402.381378E+06           208.723816E+12            28.4142628E-06           43.9474297E-03 
                  16.E+03                  26.0440235               26.1291313               85.1063461E-03           11.7876902E-03          404.70816E-03             -6.18465185E+06           2.15210605E+06         837.081848E+06           402.457733E+06           730.415283E+06             1.35650253E-03          -1.8902328E-03           27.9773521E-06            3.59100056E-03         765.942505E-06           -10.0418091E-03         -152.947678E-06            10.8077507E-03         -765.942505E-06           -11.9320393E-03         -124.969872E-06            14.3987522E-03            0.                     411.118378E+06           235.853821E+12            28.2942162E-06           43.7700005E-03 
                  17.E+03                  25.939312                26.0342369               94.9254303E-03           13.1976995E-03          407.101501E-03            -6.43977976E+06           2.28463984E+06         852.908203E+06           411.898132E+06           744.314026E+06             1.41000843E-03          -1.92940867E-03          29.7002544E-06            3.65635371E-03         789.788269E-06           -11.2821712E-03         -160.22171E-06             12.0719595E-03         -789.788269E-06           -13.2115784E-03         -130.521011E-06            15.7283134E-03            0.                     419.455566E+06           264.054016E+12            28.18046E-06             43.6017952E-03 
                  18.E+03                  25.8381577               25.9432297              105.077133E-03            14.6629629E-03          409.413666E-03            -6.52011633E+06           2.44739985E+06         868.314026E+06           420.812408E+06           757.70752E+06              1.46526384E-03          -1.96629024E-03          31.8162479E-06            3.72013164E-03         811.370972E-06           -12.5729933E-03         -165.360397E-06            13.3843632E-03         -811.370972E-06           -14.5392818E-03         -133.544327E-06            17.104496E-03             0.                     427.535461E+06           293.359283E+12            28.0705624E-06           43.4392433E-03 
                  19.E+03                  25.7420654               25.8576546              115.595428E-03            16.1875229E-03          411.610138E-03            -6.59817171E+06           2.59262013E+06         883.263489E+06           429.243256E+06           770.709473E+06             1.5245595E-03           -2.00175071E-03          33.7039833E-06            3.78234959E-03         831.218506E-06           -13.9173985E-03         -169.614029E-06            14.7486162E-03         -831.218506E-06           -15.9191475E-03         -135.909653E-06            18.5309658E-03            0.                     435.302765E+06           323.850464E+12            27.9661694E-06           43.2847672E-03 
                  20.E+03                  25.6503048               25.7767792              126.4758E-03              17.7708569E-03          413.707336E-03            -6.68019199E+06           2.73214984E+06         897.784546E+06           437.262817E+06           783.347595E+06             1.58333468E-03          -2.03597212E-03          35.5179329E-06            3.84304857E-03         849.657898E-06           -15.3147526E-03         -172.916916E-06            16.1644115E-03         -849.657898E-06           -17.3507233E-03         -137.399307E-06            20.0074577E-03            0.                     442.789154E+06           355.517151E+12            27.8664837E-06           43.1371994E-03 
                  21.E+03                  25.5626335               25.7003288              137.695343E-03            19.4097576E-03          415.711182E-03            -6.76589584E+06           2.870502E+06           911.881165E+06           444.919067E+06           795.623962E+06             1.6388973E-03           -2.06903005E-03          37.3166389E-06            3.9021759E-03          866.922546E-06           -16.7620792E-03         -175.131943E-06            17.6290016E-03         -866.922546E-06           -18.83111E-03           -137.815018E-06            21.5311794E-03            0.                     450.011505E+06           388.295135E+12            27.7712383E-06           42.9961815E-03 
                  22.E+03                  25.4788513               25.6280937              149.238571E-03            21.1019497E-03          417.62619E-03             -6.87652779E+06           2.99644399E+06         925.557617E+06           452.244171E+06           807.55957E+06              1.6921922E-03           -2.10108519E-03          38.9537888E-06            3.95973682E-03         883.199097E-06           -18.2572842E-03         -176.000183E-06            19.1404819E-03         -883.199097E-06           -20.358366E-03          -137.047134E-06            23.1002197E-03            0.                     456.975067E+06           422.138916E+12            27.6802177E-06           42.8613663E-03 
                  23.E+03                  25.3986263               25.5599957              161.364166E-03            22.883997E-03           419.459991E-03            -6.98040009E+06           3.1405859E+06          939.145447E+06           459.445892E+06           819.413879E+06             1.78204942E-03          -2.13278913E-03          40.8276711E-06            4.01702976E-03         898.982178E-06           -19.8327446E-03         -173.459869E-06            20.7317276E-03         -898.982178E-06           -21.9655304E-03         -132.631851E-06            24.7487564E-03            0.                     463.8703E+06             457.779907E+12            27.5930634E-06           42.7322426E-03 
                  24.E+03                  25.3275414               25.5018654              174.322876E-03            24.7868595E-03          421.084869E-03            -7.08602762E+06           3.30930591E+06         952.837708E+06           466.641815E+06           831.361511E+06             1.90286422E-03          -2.16464925E-03          43.0209045E-06            4.07485485E-03         914.581604E-06           -21.5155315E-03         -168.47905E-06             22.4301109E-03         -914.581604E-06           -23.6801758E-03         -125.457764E-06            26.5049686E-03            0.                     470.797852E+06           495.837189E+12            27.5158348E-06           42.6177788E-03 
                  25.E+03                  25.252409                25.4397278              187.310394E-03            26.7075558E-03          422.802094E-03            -7.1976161E+06            3.46220422E+06         965.880249E+06           473.447113E+06           842.752136E+06             1.92069316E-03          -2.19497919E-03          45.0088425E-06            4.13002729E-03         929.211365E-06           -23.2141914E-03         -165.618607E-06            24.1434002E-03         -929.211365E-06           -25.4091702E-03         -120.609421E-06            28.273428E-03             0.                     477.376587E+06           534.251038E+12            27.4342098E-06           42.4967842E-03 
                  26.E+03                  25.1827049               25.3828621              200.156296E-03            28.6132641E-03          424.395264E-03            -7.30575609E+06           3.58716989E+06         978.144836E+06           479.810791E+06           853.466309E+06             1.90570772E-03          -2.22346187E-03          46.6330681E-06            4.18196583E-03         942.795227E-06           -24.899807E-03          -163.93454E-06             25.8426056E-03         -942.795227E-06           -27.1232681E-03         -117.30217E-06             30.0245686E-03            0.                     483.549866E+06           572.365295E+12            27.3584881E-06           42.3844986E-03 
                  27.E+03                  25.1227512               25.3355179              212.765808E-03            30.4845352E-03          425.765717E-03            -7.40360022E+06           3.68806195E+06         989.609802E+06           485.734924E+06           863.479248E+06             1.87127256E-03          -2.25003529E-03          47.9447479E-06            4.2305522E-03          955.365356E-06           -26.555275E-03          -162.407639E-06            27.510643E-03          -955.365356E-06           -28.8053036E-03         -114.46257E-06             31.7411938E-03            0.                     489.313721E+06           609.790771E+12            27.2933502E-06           42.2878914E-03 
                  28.E+03                  25.0592957               25.2840462              224.749832E-03            32.2782249E-03          427.216125E-03            -7.49049616E+06           3.77336407E+06           1.00011683E+09         491.14798E+06            872.653259E+06             1.79368508E-03          -2.27434969E-03          49.0536919E-06            4.27509832E-03         966.800476E-06           -28.1424484E-03         -160.226135E-06            29.1092491E-03         -966.800476E-06           -30.4167976E-03         -111.172676E-06            33.384346E-03             0.                     494.591492E+06           645.664429E+12            27.2244072E-06           42.1856346E-03 
                  29.E+03                  25.0008621               25.2370872              236.228165E-03            34.0015221E-03          428.551971E-03            -7.56982803E+06           3.84982395E+06           1.0098083E+09          496.128601E+06           881.114685E+06             1.72330356E-03          -2.2967546E-03           50.0477943E-06            4.31620216E-03         977.285706E-06           -29.6676693E-03         -157.072433E-06            30.6449566E-03         -977.285706E-06           -31.9644241E-03         -107.024094E-06            34.9611549E-03            0.                     499.455627E+06           680.130432E+12            27.160923E-06            42.0914383E-03 
                  30.E+03                  24.9460983               25.1934147              247.31543E-03             35.6712151E-03          429.803528E-03            -7.64682436E+06           3.91977596E+06           1.01885045E+09         500.765442E+06           889.011658E+06             1.66969514E-03          -2.31765819E-03          50.9570541E-06            4.35457373E-03         987.0224E-06             -31.1457024E-03         -153.28125E-06             32.1327248E-03         -987.0224E-06             -33.4633636E-03         -102.323952E-06            36.4873047E-03            0.                     503.989655E+06           713.524353E+12            27.1014328E-06           42.0031548E-03 
                  31.E+03                  24.8942795               25.1523666              258.091675E-03            37.2988319E-03          430.988068E-03            -7.72109175E+06           3.98562002E+06           1.02736211E+09         505.122162E+06           896.447205E+06             1.62761891E-03          -2.33733153E-03          51.8130531E-06            4.39070797E-03         996.149719E-06           -32.5867157E-03         -148.859116E-06            33.5828667E-03         -996.149719E-06           -34.9240532E-03          -97.0463715E-06           37.9735756E-03            0.                     508.254364E+06           746.076782E+12            27.0451317E-06           41.9195824E-03 
                  32.E+03                  24.8449936               25.1136074              268.615448E-03            38.8926048E-03          432.114471E-03            -7.79363632E+06           4.04913425E+06           1.03542829E+09         509.24411E+06            903.495544E+06             1.59377241E-03          -2.35597682E-03          52.6386414E-06            4.4249649E-03            1.00476849E-03         -33.9979591E-03         -143.826248E-06            35.0027275E-03           -1.00476849E-03         -36.3539314E-03          -91.1867218E-06           39.4276962E-03            0.                     512.292969E+06           777.952209E+12            26.9915943E-06           41.8400955E-03 
                  33.E+03                  24.7980118               25.0769176              278.905731E-03            40.4550209E-03          433.188324E-03            -7.86391211E+06           4.11172199E+06           1.04309559E+09         513.156677E+06           910.19635E+06              1.56240404E-03          -2.37369823E-03          53.4524422E-06            4.45753908E-03           1.012936E-03           -35.381588E-03          -138.348907E-06            36.3945198E-03           -1.012936E-03           -37.7552795E-03          -84.8963394E-06           40.8520622E-03            0.                     516.129456E+06           809.200317E+12            26.9405537E-06           41.7643127E-03 
                  34.E+03                  24.7531281               25.0421371              289.004974E-03            41.9919624E-03          434.214172E-03            -7.93189192E+06           4.17375374E+06           1.05042124E+09         516.890381E+06           916.599609E+06             1.53694654E-03          -2.39062738E-03          54.258709E-06             4.4886694E-03            1.02071738E-03         -36.7428055E-03         -132.44339E-06             37.7635269E-03           -1.02071738E-03         -39.1334343E-03          -78.1840668E-06           42.2521896E-03            0.                     519.793274E+06           839.939148E+12            26.8917923E-06           41.6918983E-03 
                  35.E+03                  24.7101784               25.0091171              298.940674E-03            43.5072174E-03          435.195984E-03            -7.99903202E+06           4.23505402E+06           1.05744553E+09         520.466064E+06           922.741028E+06             1.51525486E-03          -2.4068625E-03           55.0557137E-06            4.51852703E-03           1.02816105E-03         -38.0849266E-03         -126.183495E-06            39.1130867E-03           -1.02816105E-03         -40.4917984E-03          -71.1269684E-06           43.6316185E-03            0.                     523.304199E+06           870.244385E+12            26.845129E-06            41.6225853E-03 
                  36.E+03                  24.6690331               24.9777756              308.741028E-03            45.0046539E-03          436.136475E-03            -8.06462002E+06           4.29667568E+06           1.06420517E+09         523.903748E+06           928.6521E+06               1.49744189E-03          -2.42248678E-03          55.8569412E-06            4.54726744E-03           1.03530753E-03         -39.411377E-03          -119.616508E-06            40.446682E-03            -1.03530753E-03         -41.8338623E-03          -63.7599754E-06           44.9939461E-03            0.                     526.681458E+06           900.193054E+12            26.8004227E-06           41.5561829E-03 
                  37.E+03                  24.6295471               24.9479713              318.420532E-03            46.4862404E-03          437.03891E-03             -8.1289959E+06            4.35840559E+06           1.07072544E+09         527.216492E+06           934.354797E+06             1.48158586E-03          -2.43755746E-03          56.6593971E-06            4.57499647E-03           1.04218721E-03         -40.7238579E-03         -112.781532E-06            41.7660484E-03           -1.04218721E-03         -43.1614151E-03          -56.1217308E-06           46.3410454E-03            0.                     529.937561E+06           929.824768E+12            26.757534E-06            41.4924622E-03 
                  38.E+03                  24.5916367               24.9196434              328.006195E-03            47.95578E-03            437.905426E-03            -8.19232464E+06           4.42060614E+06           1.07703614E+09         530.419739E+06           939.875122E+06             1.46953595E-03          -2.45214558E-03          57.4680443E-06            4.60183907E-03           1.04883337E-03         -42.0257378E-03         -105.693939E-06            43.0745773E-03           -1.04883337E-03         -44.4778824E-03          -48.2255135E-06           47.676403E-03             0.                     533.087891E+06           959.215698E+12            26.7163486E-06           41.431263E-03  
                  39.E+03                  24.5551929               24.8926926              337.502136E-03            49.4137115E-03          438.738525E-03            -8.25511265E+06           4.48168421E+06           1.08315086E+09         533.521057E+06           945.225403E+06             1.45793009E-03          -2.4662838E-03           58.2618828E-06            4.6278553E-03            1.05526209E-03         -43.3173943E-03          -98.3921356E-06           44.372654E-03            -1.05526209E-03         -45.7836838E-03          -40.1302223E-06           49.000515E-03             0.                     536.138977E+06           988.374146E+12            26.676754E-06            41.3724213E-03 
                  40.E+03                  24.520155                24.8670807              346.921967E-03            50.8618774E-03          439.539368E-03            -8.31701946E+06           4.54152012E+06           1.0890882E+09          536.530029E+06           950.421265E+06             1.44816697E-03          -2.48001266E-03          59.0396805E-06            4.65312147E-03           1.06149328E-03         -44.6004562E-03          -90.8900909E-06           45.6619453E-03           -1.06149328E-03         -47.0804634E-03          -31.8495998E-06           50.3150673E-03            0.                     539.100586E+06             1.01733756E+15          26.6386833E-06           41.3158417E-03 
                  41.E+03                  24.4864273               24.8427086              356.281067E-03            52.3024178E-03          440.310303E-03            -8.37847137E+06           4.600214E+06             1.09486592E+09         539.45575E+06            955.478516E+06             1.44054186E-03          -2.4933753E-03           59.8028107E-06            4.67771339E-03           1.0675478E-03          -45.8768005E-03          -83.1740952E-06           46.9443588E-03           -1.0675478E-03          -48.3701744E-03          -23.3717728E-06           51.6220627E-03            0.                     541.981079E+06             1.04614842E+15          26.6020508E-06           41.2613831E-03 
                  42.E+03                  24.4539337               24.8195267              365.588776E-03            53.7366524E-03          441.05304E-03             -8.43958378E+06           4.65760612E+06           1.10049653E+09         542.304932E+06           960.408081E+06             1.4342382E-03           -2.50640011E-03          60.5487747E-06            4.70168447E-03           1.07343936E-03         -47.1476097E-03          -75.2627411E-06           48.2210503E-03           -1.07343936E-03         -49.654007E-03           -14.7141981E-06           52.9227409E-03            0.                     544.787292E+06             1.07483304E+15          26.5667439E-06           41.2088966E-03 
                  43.E+03                  24.4226055               24.7974472              374.843781E-03            55.1643143E-03          441.769104E-03            -8.50041962E+06           4.71344566E+06           1.10598624E+09         545.080811E+06           965.215332E+06             1.42765427E-03          -2.51910305E-03          61.2748566E-06            4.72506189E-03           1.07917535E-03         -48.4126091E-03          -67.207962E-06            49.491787E-03            -1.07917535E-03         -50.9317207E-03           -5.93368912E-06          54.2168579E-03            0.                     547.522278E+06             1.10338628E+15          26.5327053E-06           41.1582947E-03 
                  44.E+03                  24.3923817               24.7764435              384.060669E-03            56.5874176E-03          442.459839E-03            -8.56099987E+06           4.76771784E+06           1.11134946E+09         547.791016E+06           969.91272E+06              1.4231075E-03           -2.53151536E-03          61.9804497E-06            4.74790239E-03           1.08477175E-03         -49.6736183E-03          -59.0065041E-06           50.7584E-03              -1.08477175E-03         -52.2051392E-03            2.97301459E-06          55.5063019E-03            0.                     550.193115E+06             1.13184834E+15          26.4998779E-06           41.1094742E-03 
                  45.E+03                  24.363205                24.7564468              393.241333E-03            58.006218E-03           443.126678E-03            -8.62180328E+06           4.81988382E+06           1.11659241E+09         550.438232E+06           974.506287E+06             1.41879678E-03          -2.54365516E-03          62.6585426E-06            4.77023602E-03           1.09023559E-03         -50.9308281E-03          -50.6711693E-06           52.0210609E-03           -1.09023559E-03         -53.4744797E-03           11.9879837E-06           56.7913055E-03            0.                     552.802917E+06             1.16022408E+15          26.4681816E-06           41.0623398E-03 
                  46.E+03                  24.3404121               24.7428799              402.471863E-03            59.4216347E-03          443.647827E-03            -8.68276024E+06           4.870368E+06             1.12172353E+09         553.027466E+06           979.003113E+06             1.41541779E-03          -2.55554008E-03          63.3148041E-06            4.79209995E-03           1.09557593E-03         -52.1850662E-03          -42.1954308E-06           53.2806435E-03           -1.09557593E-03         -54.7406082E-03           21.1191368E-06           58.0727463E-03            0.                     555.356201E+06             1.18853259E+15          26.4434128E-06           41.0254974E-03 
                  47.E+03                  24.311018                24.7225876              411.5672E-03              60.834095E-03           444.319672E-03            -8.74368858E+06           4.91928244E+06           1.12674952E+09         555.56189E+06            983.408813E+06             1.41246021E-03          -2.56718564E-03          63.9507179E-06            4.81351995E-03           1.10080075E-03         -53.4367027E-03          -33.5962982E-06           54.5374985E-03           -1.10080075E-03         -56.003891E-03            30.3550625E-06           59.3510361E-03            0.                     557.855835E+06             1.21678174E+15          26.4114838E-06           40.9780083E-03 
                  48.E+03                  24.28368                 24.7043304              420.65799E-03             62.2444191E-03          444.944611E-03            -8.80455208E+06           4.96664381E+06           1.13167703E+09         558.045227E+06           987.72937E+06              1.41032839E-03          -2.57860589E-03          64.5663834E-06            4.83452415E-03           1.10591733E-03         -54.6864624E-03          -24.8686409E-06           55.7923813E-03           -1.10591733E-03         -57.2650871E-03           39.6966934E-06           60.6269073E-03            0.                     560.305908E+06             1.2449882E+15           26.3817749E-06           40.9338188E-03 
                  49.E+03                  24.2576694               24.6874065              429.735016E-03            63.6525307E-03          445.539001E-03            -8.86532021E+06           5.01267576E+06           1.13651025E+09         560.479431E+06           991.967957E+06             1.4081111E-03           -2.58981109E-03          65.1647568E-06            4.85512972E-03           1.11092997E-03         -55.934288E-03           -16.0406342E-06           57.0452194E-03           -1.11092997E-03         -58.5240974E-03           49.1244736E-06           61.9003563E-03            0.                     562.708252E+06             1.2731508E+15           26.3535233E-06           40.8917961E-03 
                  50.E+03                  24.2326889               24.6714897              438.798248E-03            65.0589218E-03          446.109955E-03            -8.92611217E+06           5.05706024E+06           1.14125419E+09         562.867432E+06           996.129272E+06             1.4064033E-03           -2.60081387E-03          65.7418594E-06            4.87535906E-03           1.11584485E-03         -57.180603E-03            -7.10086918E-06          58.2964478E-03           -1.11584485E-03         -59.7814178E-03           58.6402588E-06           63.1718025E-03            0.                     565.065186E+06             1.30127859E+15          26.3263893E-06           40.8514099E-03 
                  51.E+03                  24.2085896               24.6564388              447.849762E-03            66.4641266E-03          446.660828E-03            -8.98731613E+06           5.09952402E+06           1.1459142E+09          565.211426E+06             1.00021827E+09           1.40518606E-03          -2.61162496E-03          66.2938461E-06            4.89523458E-03           1.12066722E-03         -58.4258423E-03            1.91293657E-06          59.5465164E-03           -1.12066722E-03         -61.0374794E-03           68.2049408E-06           64.4417496E-03            0.                     567.379333E+06             1.32938218E+15          26.3002071E-06           40.8124619E-03 
                  52.E+03                  24.1852837               24.64217                456.889496E-03            67.8681717E-03          447.193634E-03            -9.04838753E+06           5.14082813E+06           1.15049314E+09         567.513672E+06             1.00423706E+09           1.40405476E-03          -2.62225199E-03          66.830719E-06             4.91476727E-03           1.12540102E-03         -59.6700897E-03           11.0170803E-06           60.7955017E-03           -1.12540102E-03         -62.2923431E-03           77.84832E-06             65.7102661E-03            0.                     569.652771E+06             1.35746324E+15          26.2748795E-06           40.7747765E-03 
                  53.E+03                  24.1627064               24.628624               465.918091E-03            69.2711945E-03          447.709595E-03            -9.10932446E+06           5.18104601E+06           1.15499449E+09         569.775574E+06             1.00818849E+09           1.40301251E-03          -2.63270187E-03          67.353569E-06             4.93397379E-03           1.13005006E-03         -60.9134369E-03           20.2138901E-06           62.0434914E-03           -1.13005006E-03         -63.5461349E-03           87.5685349E-06           66.9774551E-03            0.                     571.886902E+06             1.38552403E+15          26.2503567E-06           40.7382774E-03 
                  54.E+03                  24.1408234               24.6157646              474.93924E-03             70.6736908E-03          448.209839E-03            -9.17018318E+06           5.22022629E+06           1.15942299E+09         571.999756E+06             1.01207662E+09           1.4025054E-03           -2.64298534E-03          67.8628845E-06            4.95287132E-03           1.13461924E-03         -62.1563263E-03           29.5024357E-06           63.290947E-03            -1.13461924E-03         -64.7993164E-03           97.3632584E-06           68.2438202E-03            0.                     574.084229E+06             1.41357386E+15          26.2265797E-06           40.7028923E-03 
                  55.E+03                  24.1195869               24.6035423              483.951813E-03            72.0755463E-03          448.69519E-03             -9.23087597E+06           5.25836992E+06           1.16378081E+09         574.187134E+06             1.01590335E+09           1.40184426E-03          -2.65310597E-03          68.3587875E-06            4.97146893E-03           1.13911068E-03         -63.3986435E-03           38.8729401E-06           64.5377579E-03           -1.13911068E-03         -66.0517426E-03          107.232018E-06            69.5092239E-03            0.                     576.245605E+06             1.44161069E+15          26.2035103E-06           40.6685562E-03 
                  56.E+03                  24.0989799               24.5919361              492.957428E-03            73.4769287E-03          449.166168E-03            -9.29143524E+06           5.29551411E+06           1.16807044E+09         576.339294E+06             1.0196712E+09            1.4013896E-03           -2.66307163E-03          68.8416214E-06            4.98977995E-03           1.14352834E-03         -64.6405563E-03           48.333313E-06            65.7840881E-03           -1.14352834E-03         -67.3036346E-03          117.173882E-06            70.77388E-03              0.                     578.372742E+06             1.46963859E+15          26.1811275E-06           40.6352272E-03 
                  57.E+03                  24.0789757               24.580925               501.957123E-03            74.8779755E-03          449.623627E-03            -9.35192394E+06           5.33159161E+06           1.17229438E+09         578.457764E+06             1.02338183E+09           1.4010458E-03           -2.6728878E-03           69.3106842E-06            5.00781441E-03           1.14787459E-03         -65.8821716E-03           57.8570175E-06           67.0300446E-03           -1.14787459E-03         -68.5550613E-03          127.168831E-06            72.0378571E-03            0.                     580.466675E+06             1.49765944E+15          26.1593857E-06           40.6028709E-03 
                  58.E+03                  24.0637798               24.5748158              511.032867E-03            76.2788849E-03          449.970795E-03            -9.41221619E+06           5.36677599E+06           1.17645657E+09         580.543823E+06             1.02703881E+09           1.40092218E-03          -2.68256116E-03          69.7679977E-06            5.02558422E-03           1.1521529E-03          -67.1236725E-03           67.4724579E-06           68.2758179E-03           -1.1521529E-03          -69.8062363E-03          137.240616E-06            73.3014221E-03            0.                     582.529236E+06             1.5256778E+15           26.1428795E-06           40.5782852E-03 
                  59.E+03                  24.0431709               24.5631676              519.993713E-03            77.6797943E-03          450.441895E-03            -9.472332E+06             5.40103817E+06           1.18055797E+09         582.598816E+06             1.03064311E+09           1.40091431E-03          -2.69209695E-03          70.2136612E-06            5.0430994E-03            1.15636575E-03         -68.3651733E-03           77.1814957E-06           69.5215378E-03           -1.15636575E-03         -71.0572815E-03          147.395294E-06            74.5646439E-03            0.                     584.561462E+06             1.55369627E+15          26.1204948E-06           40.54496E-03   
                  60.E+03                  24.0240097               24.5529747              528.96698E-03             79.0806351E-03          450.879913E-03            -9.53232002E+06           5.43443394E+06           1.18460095E+09         584.623657E+06             1.03419662E+09           1.40081429E-03          -2.70149851E-03          70.6475983E-06            5.06036711E-03           1.16051519E-03         -69.6065903E-03           86.9631805E-06           70.7670975E-03           -1.16051519E-03         -72.308075E-03           157.609589E-06            75.8274689E-03            0.                     586.56427E+06              1.58171237E+15          26.0996704E-06           40.5139694E-03 
                  61.E+03                  24.0057335               24.5436783              537.945374E-03            80.481636E-03           451.297455E-03            -9.59216022E+06           5.46723175E+06           1.18858802E+09         586.619629E+06             1.03770161E+09           1.40101326E-03          -2.71077228E-03          71.0741425E-06            5.07739878E-03           1.16460395E-03         -70.848175E-03            96.8095779E-06           72.012764E-03            -1.16460395E-03         -73.5589523E-03          167.884399E-06            77.0901718E-03            0.                     588.538513E+06             1.60973287E+15          26.0798187E-06           40.4844055E-03 
                  62.E+03                  23.9881248               24.5350456              546.924194E-03            81.8826675E-03          451.700165E-03            -9.65185642E+06           5.499156E+06             1.1925205E+09          588.587402E+06             1.04115927E+09           1.40103936E-03          -2.71992135E-03          71.4889297E-06            5.0941987E-03            1.16863358E-03         -72.0897903E-03          106.731888E-06            73.2584076E-03           -1.16863358E-03         -74.8097E-03             178.221146E-06            78.3526001E-03            0.                     590.485291E+06             1.63775373E+15          26.0606899E-06           40.4559021E-03 
                  63.E+03                  23.9710693               24.5269661              555.900696E-03            83.2835846E-03          452.089935E-03            -9.71132851E+06           5.53034401E+06           1.19639957E+09         590.527649E+06             1.04457033E+09           1.40089667E-03          -2.72894669E-03          71.8946075E-06            5.11077309E-03           1.17260575E-03         -73.3312683E-03          116.719398E-06            74.5038605E-03           -1.17260575E-03         -76.0602112E-03          188.610992E-06            79.6146393E-03            0.                     592.405273E+06             1.6657716E+15           26.0421562E-06           40.4283142E-03 
                  64.E+03                  23.9545097               24.5193825              564.876709E-03            84.684639E-03           452.468475E-03            -9.77063942E+06           5.56071568E+06           1.20022714E+09         592.441528E+06             1.04793668E+09           1.40106368E-03          -2.73785591E-03          72.2892914E-06            5.12713003E-03           1.17652237E-03         -74.5728989E-03          126.777679E-06            75.7494202E-03           -1.17652237E-03         -77.3107376E-03          199.06601E-06             80.8765335E-03            0.                     594.299377E+06             1.69379258E+15          26.0241604E-06           40.4015274E-03 
                  65.E+03                  23.9384117               24.5122566              573.851135E-03            86.0858002E-03          452.836456E-03            -9.82978058E+06           5.590312E+06             1.20400536E+09         594.329895E+06             1.05126023E+09           1.40116179E-03          -2.74665141E-03          72.6740646E-06            5.14327717E-03           1.18038559E-03         -75.8146057E-03          136.904877E-06            76.9949951E-03           -1.18038559E-03         -78.5612717E-03          209.578781E-06            82.1382675E-03            0.                     596.168457E+06             1.7218163E+15           26.0066757E-06           40.3754692E-03 
                  66.E+03                  23.9265289               24.5094376              582.90686E-03             87.4870987E-03          453.10791E-03             -9.88875961E+06           5.61911821E+06           1.20773518E+09         596.193237E+06             1.05454183E+09           1.40129602E-03          -2.75533652E-03          73.0486069E-06            5.15921879E-03           1.18419671E-03         -77.0564194E-03          147.107529E-06            78.2406235E-03           -1.18419671E-03         -79.8117676E-03          220.155807E-06            83.3998489E-03            0.                     598.013062E+06             1.74984193E+15          25.9937782E-06           40.3562393E-03 
                  67.E+03                  23.9134903               24.5054207              591.929565E-03            88.8884659E-03          453.405914E-03            -9.9475441E+06            5.64721012E+06           1.21141779E+09         598.032654E+06             1.05778205E+09           1.40137732E-03          -2.76391339E-03          73.4136276E-06            5.17496204E-03           1.18795741E-03         -78.2983475E-03          157.388382E-06            79.4862976E-03           -1.18795741E-03         -81.0622406E-03          230.802216E-06            84.6612396E-03            0.                     599.834351E+06             1.77786958E+15          25.9796066E-06           40.335144E-03  
                  68.E+03                  23.9001255               24.5010605              600.935791E-03            90.2898941E-03          453.711456E-03           -10.006216E+06             5.6745677E+06            1.21505475E+09         599.84845E+06              1.06098282E+09           1.4014051E-03           -2.77238584E-03          73.7693024E-06            5.19051123E-03           1.19166851E-03         -79.5402374E-03          167.73027E-06             80.7319031E-03           -1.19166851E-03         -82.312645E-03           241.497986E-06            85.9224243E-03            0.                     601.632385E+06             1.80589771E+15          25.9650879E-06           40.3135109E-03 
                  69.E+03                  23.883131                24.4929848              609.850098E-03            91.6913452E-03          454.099884E-03           -10.0647326E+06            5.70113373E+06           1.218647E+09           601.641357E+06             1.06414473E+09           1.40147448E-03          -2.78075671E-03          74.1146469E-06            5.20587158E-03           1.19533229E-03         -80.7822266E-03          178.141983E-06            81.977562E-03            -1.19533229E-03         -83.5629883E-03          252.256149E-06            87.1834183E-03            0.                     603.40802E+06              1.83392692E+15          25.9466305E-06           40.2860184E-03 
                  70.E+03                  23.8678131               24.4865952              618.791077E-03            93.0929794E-03          454.450104E-03           -10.1230593E+06            5.72709608E+06           1.22219658E+09         603.412109E+06             1.06726944E+09           1.40162861E-03          -2.78902793E-03          74.4522781E-06            5.22104931E-03           1.19894993E-03         -82.0243225E-03          188.633804E-06            83.2232742E-03           -1.19894993E-03         -84.8133545E-03          263.084656E-06            88.4443207E-03            0.                     605.161865E+06             1.8619597E+15           25.9299812E-06           40.2612152E-03 
                  71.E+03                  23.8569527               24.4847794              627.826355E-03            94.4946823E-03          454.698334E-03           -10.181284E+06             5.752388E+06             1.2257036E+09          605.161194E+06             1.07035732E+09           1.40170395E-03          -2.79720402E-03          74.7810974E-06            5.23604774E-03           1.20252204E-03         -83.2664948E-03          199.187088E-06            84.4690247E-03           -1.20252204E-03         -86.0637131E-03          273.967133E-06            89.7050705E-03            0.                     606.894409E+06             1.88999379E+15          25.9181881E-06           40.2436333E-03 
                  72.E+03                  23.8417377               24.4784851              636.751038E-03            95.8965302E-03          455.046051E-03           -10.2393436E+06            5.77711821E+06           1.22916996E+09         606.88916E+06              1.07340968E+09           1.40183091E-03          -2.80528569E-03          75.1025848E-06            5.25087309E-03           1.20605087E-03         -84.5087814E-03          209.801819E-06            85.7148132E-03           -1.20605087E-03         -87.3140717E-03          284.906006E-06            90.9657059E-03            0.                     608.606445E+06             1.91803074E+15          25.9016552E-06           40.2190132E-03 
                  73.E+03                  23.8277683               24.4734631              645.694946E-03            97.2984009E-03          455.365295E-03           -10.2972279E+06            5.80127001E+06           1.23259568E+09         608.596863E+06             1.07642674E+09           1.4018805E-03           -2.81327486E-03          75.4165497E-06            5.26552868E-03           1.20953655E-03         -85.7510834E-03          220.492477E-06            86.9606247E-03           -1.20953655E-03         -88.5643692E-03          295.905426E-06            92.2261505E-03            0.                     610.298523E+06             1.94606769E+15          25.8864841E-06           40.1963959E-03 
                  74.E+03                  23.8145332               24.4691772              654.646179E-03            98.7002411E-03          455.667908E-03           -10.3549643E+06            5.82475758E+06           1.23598254E+09         610.284302E+06             1.07941008E+09           1.40184808E-03          -2.82117438E-03          75.7219086E-06            5.28001738E-03           1.21298015E-03         -86.9933777E-03          231.239014E-06            88.2063522E-03           -1.21298015E-03         -89.8145447E-03          306.964386E-06            93.4863434E-03            0.                     611.970459E+06             1.97410488E+15          25.8721027E-06           40.1749687E-03 
                  75.E+03                  23.8017998               24.4654045              663.601379E-03           100.102203E-03           455.958832E-03           -10.4125557E+06            5.84773016E+06           1.23933113E+09         611.952271E+06             1.08236015E+09           1.4019711E-03           -2.82898736E-03          76.0206299E-06            5.29434538E-03           1.21638358E-03         -88.235733E-03           242.055862E-06            89.4521332E-03           -1.21638358E-03         -91.0647354E-03          318.075073E-06            94.7464828E-03            0.                     613.623657E+06             2.0021441E+15           25.8582706E-06           40.154377E-03  
                  76.E+03                  23.7928162               24.4654617              672.641846E-03           101.504189E-03           456.164246E-03           -10.4700441E+06            5.87010574E+06           1.2426424E+09          613.601135E+06             1.0852778E+09            1.40196943E-03          -2.83671594E-03          76.3114929E-06            5.30851555E-03           1.2197473E-03          -89.4781265E-03          252.922058E-06            90.6978836E-03           -1.2197473E-03          -92.3148575E-03          329.236969E-06            96.0063934E-03            0.                     615.257935E+06             2.03018379E+15          25.8485107E-06           40.1398087E-03 
                  77.E+03                  23.7795181               24.4610939              681.566345E-03           102.906166E-03           456.46817E-03            -10.5272999E+06            5.8919878E+06            1.2459178E+09          615.231689E+06             1.08816421E+09           1.40199697E-03          -2.84436059E-03          76.5958099E-06            5.3225317E-03            1.22307217E-03         -90.7205048E-03          263.865112E-06            91.9435883E-03           -1.22307217E-03         -93.5648651E-03          340.455688E-06            97.2661209E-03            0.                     616.874084E+06             2.05822349E+15          25.8340645E-06           40.1182861E-03 
                  78.E+03                  23.7705345               24.4611263              690.59375E-03            104.308319E-03           456.673492E-03           -10.5844078E+06            5.91343021E+06           1.24915767E+09         616.844055E+06             1.09101951E+09           1.40212882E-03          -2.85192442E-03          76.8744202E-06            5.33639908E-03           1.22635996E-03         -91.9630051E-03          274.856567E-06            93.1893768E-03           -1.22635996E-03         -94.8149414E-03          351.728424E-06            98.5257645E-03            0.                     618.47229E+06              2.08626628E+15          25.8243008E-06           40.1037331E-03 
                  79.E+03                  23.7608109               24.4604073              699.594971E-03           105.710327E-03           456.895782E-03           -10.6413441E+06            5.93426228E+06           1.25236249E+09         618.438538E+06             1.09384441E+09           1.40200531E-03          -2.85940862E-03          77.1453247E-06            5.35011816E-03           1.22961056E-03         -93.2053909E-03          285.90625E-06             94.4350052E-03           -1.22961056E-03         -96.0648193E-03          363.053741E-06            99.7851334E-03            0.                     620.053223E+06             2.11430621E+15          25.8137379E-06           40.087986E-03  
                  80.E+03                  23.7509003               24.459486               708.582642E-03           107.112106E-03           457.122253E-03           -10.6981487E+06            5.95454979E+06           1.25553358E+09         620.015503E+06             1.09663999E+09           1.40180123E-03          -2.8668139E-03           77.4090271E-06            5.36369133E-03           1.2328248E-03          -94.4475861E-03          297.009033E-06            95.6804199E-03           -1.2328248E-03          -97.314415E-03           374.419159E-06           101.044121E-03             0.                     621.617004E+06             2.14234257E+15          25.8029709E-06           40.0719376E-03 
                  81.E+03                  23.7410164               24.45858                717.563721E-03           108.513878E-03           457.348145E-03           -10.754796E+06             5.97440195E+06           1.25867093E+09         621.575439E+06             1.09940612E+09           1.40174437E-03          -2.87414432E-03          77.6671219E-06            5.37712383E-03           1.23600376E-03         -95.689743E-03           308.172302E-06            96.9257431E-03           -1.23600376E-03         -98.5638809E-03          385.840424E-06           102.302872E-03             0.                     623.163879E+06             2.17037702E+15          25.7922344E-06           40.0559311E-03 
                  82.E+03                  23.7312584               24.457798               726.539734E-03           109.915405E-03           457.57132E-03            -10.8112679E+06            5.99374199E+06           1.26177573E+09         623.118896E+06             1.10214412E+09           1.40155482E-03          -2.88139844E-03          77.9185257E-06            5.39041662E-03           1.23914802E-03         -96.931694E-03           319.385895E-06            98.1708374E-03           -1.23914802E-03         -99.8131027E-03          397.304047E-06           103.561264E-03             0.                     624.694397E+06             2.19840837E+15          25.7816296E-06           40.0401192E-03 
                  83.E+03                  23.7216625               24.4571724              735.512878E-03           111.316925E-03           457.790558E-03           -10.867568E+06             6.01266623E+06           1.26484859E+09         624.646118E+06             1.10485423E+09           1.40151799E-03          -2.88858032E-03          78.1645355E-06            5.4035759E-03            1.24225879E-03         -98.1736145E-03          330.6633E-06              99.4158859E-03           -1.24225879E-03        -101.062195E-03           408.832916E-06           104.819458E-03             0.                     626.208984E+06             2.22643852E+15          25.7712078E-06           40.0245781E-03 
                  84.E+03                  23.7122536               24.4567337              744.484009E-03           112.718391E-03           458.005676E-03           -10.923708E+06             6.03116226E+06           1.26789105E+09         626.157593E+06             1.10753763E+09           1.40145326E-03          -2.89569092E-03          78.4050522E-06            5.41660261E-03           1.24533725E-03         -99.4154587E-03          341.998413E-06           100.66082E-03             -1.24533725E-03        -102.311165E-03           420.405975E-06           106.077408E-03             0.                     627.708191E+06             2.25446796E+15          25.7609863E-06           40.009346E-03  
                  85.E+03                  23.7030373               24.4564934              753.452454E-03           114.119637E-03           458.216187E-03           -10.9796638E+06            6.0491519E+06            1.27090228E+09         627.653381E+06             1.11019409E+09           1.40124989E-03          -2.90273142E-03          78.6389542E-06            5.42950249E-03           1.24838305E-03        -100.657135E-03           353.393127E-06           101.905525E-03            -1.24838305E-03        -103.559868E-03           432.027527E-06           107.335007E-03             0.                     629.192078E+06             2.28249264E+15          25.7509747E-06           39.9944191E-03 
                  86.E+03                  23.6940289               24.4564457              762.417419E-03           115.520538E-03           458.422241E-03           -11.0354319E+06            6.06666803E+06           1.2738837E+09          629.133728E+06             1.11282456E+09           1.40089035E-03          -2.90970325E-03          78.8667526E-06            5.44227076E-03           1.25139678E-03        -101.898476E-03           364.837219E-06           103.149864E-03            -1.25139678E-03        -104.808167E-03           443.703033E-06           108.592125E-03             0.                     630.660767E+06             2.3105104E+15           25.7411804E-06           39.9798279E-03 
                  87.E+03                  23.685215                24.4565983              771.381287E-03           116.921349E-03           458.623596E-03           -11.0910759E+06            6.08383417E+06           1.27683568E+09         630.599426E+06             1.11542928E+09           1.40080595E-03          -2.91660857E-03          79.0898056E-06            5.45491648E-03           1.25437987E-03        -103.139725E-03           376.328339E-06           104.394119E-03            -1.25437987E-03        -106.056335E-03           455.418579E-06           109.849022E-03             0.                     632.114807E+06             2.33852696E+15          25.7316132E-06           39.9655533E-03 
                  88.E+03                  23.6766052               24.4569473              780.342957E-03           118.321869E-03           458.820465E-03           -11.1465397E+06            6.10059834E+06           1.27975917E+09         632.050293E+06             1.11800945E+09           1.40054846E-03          -2.92344666E-03          79.3076172E-06            5.46744204E-03           1.2573328E-03         -104.38073E-03            387.871613E-06           105.638062E-03            -1.2573328E-03         -107.304184E-03           467.183533E-06           111.105499E-03             0.                     633.554443E+06             2.36653733E+15          25.7222557E-06           39.9515991E-03 
                  89.E+03                  23.6681919               24.4574928              789.302185E-03           119.722145E-03           459.012817E-03           -11.2018442E+06            6.11690569E+06           1.28265429E+09         633.486877E+06             1.12056446E+09           1.4002496E-03           -2.93022108E-03          79.519783E-06             5.47984409E-03           1.26025593E-03        -105.621475E-03           399.463348E-06           106.881737E-03            -1.26025593E-03        -108.551704E-03           478.984772E-06           112.361588E-03             0.                     634.979736E+06             2.39454246E+15          25.7131138E-06           39.9379807E-03 
                  90.E+03                  23.659977                24.4582367              798.260681E-03           121.122269E-03           459.200562E-03           -11.2570152E+06            6.13292837E+06           1.2855221E+09          634.909607E+06             1.12309623E+09           1.40014088E-03          -2.93693328E-03          79.7281113E-06            5.49213266E-03           1.26314998E-03        -106.862106E-03           411.103485E-06           108.125252E-03            -1.26314998E-03        -109.799034E-03           490.835388E-06           113.617378E-03             0.                     636.391479E+06             2.42254567E+15          25.7041893E-06           39.9246597E-03 
                  91.E+03                  23.6519527               24.4591675              807.216919E-03           122.522133E-03           459.384033E-03           -11.3120556E+06            6.14855003E+06           1.28836274E+09         636.31842E+06              1.12560403E+09           1.39984524E-03          -2.94358206E-03          79.9312515E-06            5.50430489E-03           1.26601613E-03        -108.102455E-03           422.785522E-06           109.368484E-03            -1.26601613E-03        -111.046043E-03           502.717682E-06           114.87278E-03              0.                     637.789673E+06             2.45054245E+15          25.6954727E-06           39.9116631E-03 
                  92.E+03                  23.6441231               24.460289               816.17041E-03            123.921524E-03           459.562927E-03           -11.3669243E+06            6.16376591E+06           1.2911768E+09          637.713684E+06             1.12808859E+09           1.39938879E-03          -2.95017052E-03          80.1288986E-06            5.51636267E-03           1.26885366E-03        -109.342415E-03           434.509918E-06           110.611259E-03            -1.26885366E-03        -112.292572E-03           514.63678E-06            116.127632E-03             0.                     639.1745E+06               2.47853017E+15          25.6869564E-06           39.8989677E-03 
                  93.E+03                  23.6364765               24.4616013              825.121155E-03           125.320419E-03           459.737732E-03           -11.4215918E+06            6.17855406E+06           1.29396427E+09         639.095581E+06             1.13055003E+09           1.39892375E-03          -2.95669699E-03          80.3211365E-06            5.52830935E-03           1.27166367E-03        -110.581924E-03           446.280914E-06           111.8536E-03              -1.27166367E-03        -113.538605E-03           526.602417E-06           117.381905E-03             0.                     640.545959E+06             2.50650883E+15          25.6786594E-06           39.8865929E-03 
                  94.E+03                  23.6290264               24.463089               834.069946E-03           126.719025E-03           459.908081E-03           -11.4760761E+06            6.19300985E+06           1.29672587E+09         640.464355E+06             1.13298893E+09           1.39858854E-03          -2.96316576E-03          80.509285E-06             5.5401473E-03            1.27444685E-03        -111.821136E-03           458.095703E-06           113.095596E-03            -1.27444685E-03        -114.784325E-03           538.609924E-06           118.635742E-03             0.                     641.904724E+06             2.53448057E+15          25.6705627E-06           39.8745079E-03 
                  95.E+03                  23.6217461               24.4647636              843.017456E-03           128.117386E-03           460.074432E-03           -11.5304403E+06            6.20717192E+06           1.29946291E+09         641.820557E+06             1.13540649E+09           1.39835727E-03          -2.96957755E-03          80.6931305E-06            5.55187845E-03           1.27720392E-03        -113.060143E-03           469.953735E-06           114.337349E-03            -1.27720392E-03        -116.029724E-03           550.647278E-06           119.889244E-03             0.                     643.250916E+06             2.56244755E+15          25.6626587E-06           39.8627167E-03 
                  96.E+03                  23.6146488               24.4666138              851.962769E-03           129.515289E-03           460.236542E-03           -11.5846281E+06            6.22093582E+06           1.30217528E+09         643.164062E+06             1.13780236E+09           1.39791918E-03          -2.97593212E-03          80.8722992E-06            5.56350613E-03           1.27993512E-03        -114.298752E-03           481.853241E-06           115.578682E-03            -1.27993512E-03        -117.274696E-03           562.723755E-06           121.142197E-03             0.                     644.584839E+06             2.59040594E+15          25.6549492E-06           39.8512268E-03 
                  97.E+03                  23.6077271               24.4686375              860.905762E-03           130.912796E-03           460.394806E-03           -11.6386032E+06            6.23424625E+06           1.30486333E+09         644.495361E+06             1.14017713E+09           1.39749253E-03          -2.98223042E-03          81.0451736E-06            5.57503033E-03           1.28264093E-03        -115.536957E-03           493.790039E-06           116.819618E-03            -1.28264093E-03        -118.519203E-03           574.834656E-06           122.394615E-03             0.                     645.906738E+06             2.61835575E+15          25.6474266E-06           39.8400116E-03 
                  98.E+03                  23.6009808               24.4708347              869.848267E-03           132.310089E-03           460.54895E-03            -11.6924486E+06            6.24724197E+06           1.30752754E+09         645.815002E+06             1.14253139E+09           1.39730978E-03          -2.98847628E-03          81.2142944E-06            5.58645487E-03           1.28532219E-03        -116.775009E-03           505.764008E-06           118.060318E-03            -1.28532219E-03        -119.763481E-03           586.979065E-06           123.646782E-03             0.                     647.216675E+06             2.64630198E+15          25.6401005E-06           39.8290749E-03 
                  99.E+03                  23.5944042               24.473196               878.78894E-03            133.707001E-03           460.69928E-03            -11.7460804E+06            6.25993013E+06           1.3101691E+09          647.122681E+06             1.14486539E+09           1.3969003E-03           -2.99466801E-03          81.3789978E-06            5.59778023E-03           1.28797889E-03        -118.01265E-03            517.773438E-06           119.300636E-03            -1.28797889E-03        -121.007339E-03           599.157104E-06           124.898438E-03             0.                     648.515259E+06             2.67423987E+15          25.6329575E-06           39.8184166E-03 
                 100.E+03                  23.5879974               24.4757233              887.726807E-03           135.103348E-03           460.845825E-03           -11.7995358E+06            6.2722621E+06            1.31278729E+09         648.418701E+06             1.14717913E+09           1.39634728E-03          -3.00080705E-03          81.5395355E-06            5.60900736E-03           1.29061174E-03        -119.249809E-03           529.827515E-06           120.540428E-03            -1.29061174E-03        -122.250618E-03           611.36853E-06            126.149445E-03             0.                     649.802124E+06             2.70216703E+15          25.6259918E-06           39.808033E-03  




