
                     X                      Cbar_L                 Cbar_total               Cbar_trap                   PEEQ                  PSI_Cbar_L                  S_11                     S_12                     S_22                     S_33                   S_Mises                   dPEEQ                eps_elastic_11           eps_elastic_12           eps_elastic_22           eps_elastic_33           eps_plastic_11           eps_plastic_12           eps_plastic_22           eps_plastic_33            eps_total_11             eps_total_12             eps_total_22             eps_total_33          hydrostatic_stress             rho_d                   theta_L                 theta_trap      

                   0.                      25.3596725               26.3775063                1.01783693             144.99559E-03            420.350433E-03            -7.39292574E+06           2.74860001E+06         662.230103E+06           326.917786E+06           579.930359E+06             1.47922432E-03          -1.52068627E-03          35.7318077E-06            2.83186364E-03         652.332886E-06          -128.441299E-03           718.588013E-06           129.093628E-03          -652.332886E-06          -129.961975E-03           754.319153E-06           131.925507E-03             0.                     327.251648E+06             2.9000113E+15           27.5507393E-06           42.668251E-03  
                 223.152344E-06            25.8612747               26.7374763              876.201294E-03           122.877747E-03           408.885254E-03            36.964817E+06            -1.41270602E+06         666.13739E+06            350.988678E+06           544.885193E+06             1.28964007E-03          -1.3408649E-03          -18.3651848E-06            2.74875641E-03         700.290283E-06          -108.219894E-03            -1.55192614E-03         108.920181E-03          -700.290283E-06          -109.56076E-03             -1.57029176E-03         111.668938E-03             0.                     351.363586E+06             2.45765471E+15          28.0956821E-06           43.4748573E-03 
                 450.685608E-06            26.3628769               27.0980797              735.200989E-03           100.907181E-03           397.419983E-03            75.4727249E+06           -5.82882738E+06         664.176147E+06           369.259399E+06           509.932526E+06             1.10071361E-03          -1.17278957E-03         -75.7747421E-06            2.65378261E-03         736.823669E-06           -88.160141E-03            -3.6374619E-03           88.8969574E-03         -736.823669E-06           -89.3329391E-03           -3.71323609E-03          91.5507431E-03            0.                     369.636108E+06             2.01824379E+15          28.6406212E-06           44.2813797E-03 
                 681.117188E-06            26.7600136               27.3907509              630.734192E-03            85.5898438E-03          388.34259E-03            119.488152E+06            -2.03417206E+06         676.31488E+06            397.198608E+06           482.239502E+06           957.443237E-06            -1.01282942E-03         -26.4442368E-06            2.60654402E-03         792.288635E-06           -74.5435638E-03           -1.17346549E-03          75.3358536E-03         -792.288635E-06           -75.5563965E-03           -1.19990849E-03          77.9424057E-03            0.                     397.667206E+06             1.71189702E+15          29.0720692E-06           44.9180031E-03 
                 914.845581E-06            27.1571445               27.6845169              527.372742E-03            70.4021149E-03          379.26532E-03            145.187073E+06             2.16029406E+06         670.664124E+06           407.20697E+06            455.092529E+06           815.211487E-06          -890.871216E-06            28.0837841E-06            2.52472949E-03         812.258118E-06           -61.055397E-03             1.03833437E-03          61.8676491E-03         -812.258118E-06           -61.9462662E-03            1.06641793E-03          64.3923874E-03            0.                     407.686035E+06             1.40814221E+15          29.5035133E-06           45.5546188E-03 
                   1.15107369E-03          27.3891354               27.8439159              454.778412E-03            60.3322487E-03          373.962646E-03           173.207687E+06             1.40957904E+06         674.86261E+06            423.133698E+06           434.453735E+06           710.569824E-06          -780.956238E-06            18.324543E-06             2.47980118E-03         843.56311E-06            -52.1296883E-03          491.076141E-06            52.9732513E-03         -843.56311E-06            -52.9106483E-03          509.399902E-06            55.4530487E-03            0.                     423.734711E+06             1.20674527E+15          29.7555504E-06           45.9256668E-03 
                   1.38957047E-03          27.6211281               28.0029182              381.792786E-03            50.1814003E-03          368.659973E-03           200.204269E+06           422.507996E+03           678.118835E+06           438.189941E+06           413.888062E+06           605.200989E-06          -673.441895E-06             5.49259853E-06           2.43300295E-03         873.46521E-06            -43.1346207E-03          -95.369873E-06            44.0080872E-03         -873.46521E-06            -43.8080635E-03          -89.8775177E-06           46.4410858E-03            0.                     438.837677E+06             1.00372791E+15          30.0075817E-06           46.2967644E-03 
                   1.62959468E-03          27.7422485               28.073801               331.55304E-03             43.4381752E-03          365.89151E-03            212.167587E+06          -141.975006E+03           672.641663E+06           441.290222E+06           398.783875E+06           530.755066E-06          -610.059814E-06            -1.84568489E-06           2.38302112E-03         879.237305E-06           -37.24543E-03           -186.746704E-06            38.1246643E-03         -879.237305E-06           -37.8554916E-03         -188.591415E-06            40.5076904E-03            0.                     442.033142E+06           868.863464E+12            30.1391678E-06           46.4902534E-03 
                   1.87112391E-03          27.8633652               28.1446838              281.318726E-03            36.681324E-03           363.123108E-03           237.09613E+06           -761.696472E+03           680.065125E+06           457.296204E+06           383.627014E+06           457.179474E-06          -520.561462E-06            -9.90205479E-06           2.35873723E-03         910.739319E-06           -31.3145771E-03         -229.659348E-06            32.2253151E-03         -910.739319E-06           -31.8351383E-03         -239.561172E-06            34.5840569E-03            0.                     458.152466E+06           733.726562E+12            30.27075E-06             46.6837654E-03 
                   2.11377072E-03          27.9382534               28.1842823              246.028595E-03            32.0133362E-03          361.411407E-03           244.733536E+06          -607.249756E+03           673.665466E+06           457.826691E+06           371.46991E+06            405.674286E-06          -473.570618E-06            -7.89423943E-06           2.31448698E-03         911.535095E-06           -27.2561169E-03         -143.661697E-06            28.1676502E-03         -911.535095E-06           -27.7296906E-03         -151.555984E-06            30.4821415E-03            0.                     458.741882E+06           640.366577E+12            30.352108E-06            46.8033447E-03 
                   2.35746813E-03          28.0131378               28.223156               210.0186E-03              27.2479019E-03          359.699738E-03           261.930847E+06          -347.852509E+03           676.523621E+06           467.61203E+06            359.052063E+06           353.582031E-06          -406.549316E-06            -4.52206564E-06           2.28830385E-03         930.378479E-06           -23.0961037E-03          -10.7357044E-06           24.0264816E-03         -930.378479E-06           -23.5026512E-03          -15.2578573E-06           26.3147831E-03            0.                     468.688843E+06           545.058044E+12            30.433466E-06            46.9229202E-03 
                   2.60201478E-03          28.0582142               28.2430153              184.801407E-03            23.9457893E-03          358.669464E-03           270.823273E+06          -189.566498E+03           673.619934E+06           470.466644E+06           348.836731E+06           317.135284E-06          -362.013336E-06            -2.46437407E-06           2.25616503E-03         935.668274E-06           -20.2220936E-03           -7.202034E-06            21.1577644E-03         -935.668274E-06           -20.5841064E-03           -9.6661396E-06           23.413929E-03             0.                     471.636627E+06           479.015839E+12            30.4824352E-06           46.9948692E-03 
                   2.84729528E-03          28.1032848               28.2624779              159.192062E-03            20.5913315E-03          357.639252E-03           282.297913E+06            -3.58012509E+03         673.15033E+06            475.725677E+06           338.494049E+06           279.907257E-06          -311.824493E-06           -46.5515785E-09            2.22871637E-03         945.455933E-06           -17.2987766E-03            5.45819044E-06          18.244236E-03          -945.455933E-06           -17.6106033E-03            5.41162443E-06          20.4729519E-03            0.                     477.057983E+06           411.926697E+12            30.5313988E-06           47.0668106E-03 
                   3.09320164E-03          28.1267128               28.2667656              140.051895E-03            18.1033611E-03          357.103699E-03           291.413025E+06           -18.4740009E+03          671.721619E+06           479.305786E+06           329.364624E+06           251.555954E-06          -269.475983E-06          -240.161163E-09             2.20252967E-03         951.827148E-06           -15.1310806E-03         -361.207642E-09            16.0829086E-03         -951.827148E-06           -15.4005575E-03         -601.343323E-09            18.2854385E-03            0.                     480.813477E+06           362.167175E+12            30.5568542E-06           47.1042023E-03 
                   3.33965945E-03          28.1501408               28.2709332              120.792496E-03            15.5994902E-03          356.568207E-03           300.569611E+06           -22.0279999E+03          670.29541E+06            482.897339E+06           320.201965E+06           222.893692E-06          -226.941254E-06          -286.368042E-09             2.17627692E-03         958.18927E-06            -12.9498005E-03           -4.75707197E-06          13.9079885E-03         -958.18927E-06            -13.1767406E-03           -5.04335213E-06          16.0842648E-03            0.                     484.587524E+06           312.089752E+12            30.5823059E-06           47.1415901E-03 
                   3.5865941E-03           28.1524982               28.2585583              106.059113E-03            13.6957541E-03          356.514465E-03           308.112335E+06           -24.9796257E+03          668.29248E+06            485.280762E+06           311.938812E+06           200.047485E-06          -189.798019E-06          -324.738739E-09             2.15137315E-03         961.795898E-06           -11.2913942E-03           -2.35726476E-06          12.2531891E-03         -961.795898E-06           -11.4811907E-03           -2.68203449E-06          14.4045639E-03            0.                     487.228455E+06           274.015076E+12            30.5848618E-06           47.1453476E-03 
                   3.83394957E-03          28.15485                 28.2461357               91.2840195E-03           11.786314E-03           356.460632E-03           315.598877E+06           -28.4061871E+03          666.222412E+06           487.614716E+06           303.666779E+06           177.143631E-06          -152.761383E-06          -369.279419E-09             2.12629151E-03         965.341736E-06            -9.62795734E-03        -107.294907E-09            10.593297E-03          -965.341736E-06            -9.7807188E-03         -476.571594E-09            12.7195902E-03            0.                     489.811981E+06           235.826279E+12            30.5874195E-06           47.1491013E-03 
                   4.08167744E-03          28.1399269               28.2199192               79.9963684E-03           10.3330727E-03          356.801819E-03           321.473389E+06           -10.7087498E+03          663.420898E+06           488.58905E+06            296.160339E+06           158.71788E-06           -120.64817E-06           -139.216354E-09             2.10201097E-03         965.603882E-06            -8.36264515E-03         409.578217E-09             9.32824993E-03        -965.603882E-06            -8.48329353E-03         270.38913E-09             11.4302607E-03            0.                     491.161163E+06           206.761475E+12            30.5712051E-06           47.1252861E-03 
                   4.32972622E-03          28.1249962               28.1936913               68.6917496E-03            8.87743759E-03         357.142975E-03           327.361237E+06             6.33012486E+03         660.633362E+06           489.592072E+06           288.655762E+06           140.280243E-06           -88.5317535E-06           82.2965317E-09            2.07773685E-03         965.968384E-06            -7.09511805E-03           1.02714694E-06           8.0610857E-03         -965.968384E-06            -7.18364906E-03           1.10945261E-06          10.1388216E-03            0.                     492.52887E+06            177.648743E+12            30.5549831E-06           47.1014595E-03 
                   4.57805777E-03          28.098753                28.1588116               60.0580559E-03            7.76709938E-03         357.742828E-03           331.971741E+06            -6.23549986E+03         657.258728E+06           489.249695E+06           281.757904E+06           125.238556E-06           -59.903965E-06           -81.0650787E-09            2.05446172E-03         962.402527E-06            -6.12926531E-03         235.399048E-09             7.09166813E-03        -962.402527E-06            -6.18916893E-03         154.323059E-09             9.14612961E-03           0.                     492.826752E+06           155.441986E+12            30.5264759E-06           47.0595779E-03 
                   4.82663536E-03          28.0725098               28.1239128               51.4038506E-03            6.6540494E-03          358.342712E-03           336.637238E+06           -17.3930626E+03          653.932495E+06           488.971619E+06           274.858246E+06           110.158821E-06           -31.1696491E-06         -226.110397E-09             2.03124881E-03         959.003418E-06            -5.16100407E-03        -242.733231E-09             6.12000751E-03        -959.003418E-06            -5.19217348E-03        -468.851807E-09             8.15125656E-03           0.                     493.18045E+06            133.180984E+12            30.4979649E-06           47.0176926E-03 
                   5.07542849E-03          28.0365715               28.081398                44.8264275E-03            5.80814028E-03         359.164124E-03           340.232971E+06           -14.7782497E+03          650.165649E+06           487.049255E+06           268.533295E+06            97.6824875E-06           -4.65760422E-06        -192.115295E-09             2.00990486E-03         949.648315E-06            -4.42773008E-03          25.2948666E-09            5.37737846E-03        -949.648315E-06            -4.43238783E-03        -166.823151E-09             7.38728333E-03           0.                     492.482666E+06           116.262802E+12            30.4589214E-06           46.9603233E-03 
                   5.32441568E-03          28.0006332               28.038868                38.2352791E-03            4.96044302E-03         359.985596E-03           343.856628E+06           -11.6930466E+03          646.42395E+06            485.152283E+06           262.221283E+06            85.1716766E-06           21.9187012E-06         -152.012711E-09             1.9886061E-03          940.340759E-06            -3.69285774E-03         326.298492E-09             4.63319826E-03        -940.340759E-06            -3.67093873E-03         174.284653E-09             6.62180424E-03           0.                     491.811005E+06            99.3088455E+12           30.4198761E-06           46.9029465E-03 
                   5.57357073E-03          27.9536209               27.9869022               33.2806931E-03            4.32299614E-03         361.06015E-03            346.534241E+06           -15.2098751E+03          642.352661E+06           481.108551E+06           256.533112E+06            74.9346771E-06           47.4792633E-06         -197.729599E-09             1.97029948E-03         922.212097E-06            -3.14526415E-03          56.2995415E-09            4.06747627E-03        -922.212097E-06            -3.097785E-03          -141.426422E-09             6.03777599E-03           0.                     489.998505E+06            86.5599213E+12           30.3688049E-06           46.8278847E-03 
                   5.82286739E-03          27.9066086               27.9349327               28.3241386E-03            3.68529463E-03         362.134644E-03           349.220581E+06           -17.3120632E+03          638.303162E+06           477.059174E+06           250.909409E+06            64.6994247E-06           73.0594711E-06         -225.055374E-09             1.95209634E-03         904.010376E-06            -2.59747362E-03         -44.5161285E-09            3.50148416E-03        -904.010376E-06            -2.52441406E-03        -269.572449E-09             5.45358038E-03           0.                     488.194305E+06            73.8058929E+12           30.3177338E-06           46.7528229E-03 
                   6.07228661E-03          27.8465824               27.8712368               24.6539783E-03            3.21280861E-03         363.506775E-03           350.975494E+06           -14.2494373E+03          633.848816E+06           470.447815E+06           245.958191E+06            56.6157188E-06           98.4324112E-06         -185.241348E-09             1.93710923E-03         875.002625E-06            -2.19945431E-03         -25.5904541E-09            3.07445693E-03        -875.002625E-06            -2.10102177E-03        -210.833603E-09             5.01156616E-03           0.                     485.090698E+06            64.3561783E+12           30.2525158E-06           46.6569328E-03 
                   6.32181406E-03          27.7865524               27.8075275               20.9758873E-03            2.73928332E-03         364.878876E-03           352.7229E+06              -8.12132835E+03         629.384277E+06           463.791504E+06           241.141769E+06            48.5333977E-06          123.85083E-06           -105.577332E-09             1.92214966E-03         845.796814E-06            -1.80062652E-03          66.3883057E-09            2.64642334E-03        -845.796814E-06            -1.67677569E-03         -39.187851E-09             4.56857347E-03           0.                     481.966156E+06            54.8856583E+12           30.1873016E-06           46.561039E-03  
                   6.57143068E-03          27.7136822               27.7319622               18.2843513E-03            2.39231396E-03         366.544556E-03           353.487152E+06            -4.25337505E+03         624.220886E+06           454.603577E+06           236.950714E+06            42.3711472E-06          149.199188E-06           -55.2940979E-09            1.90896821E-03         806.45575E-06             -1.51847255E-03          63.2399254E-09            2.32492805E-03        -806.45575E-06             -1.3692733E-03            7.94625568E-09           4.23389673E-03           0.                     477.437195E+06            47.9462776E+12           30.1081295E-06           46.4445915E-03 
                   6.82112217E-03          27.6408081               27.6563969               15.5882645E-03            2.04473972E-03         368.210144E-03           354.25177E+06             -5.12489843E+03         619.047668E+06           445.389343E+06           233.00235E+06             36.2132645E-06          174.603424E-06           -66.623848E-09             1.89577651E-03         766.997498E-06            -1.23587143E-03         -52.5287323E-09            2.00286889E-03        -766.997498E-06            -1.06126809E-03        -119.15358E-09              3.89864564E-03           0.                     472.896271E+06            40.9947891E+12           30.0289612E-06           46.3281364E-03 
                   7.07088041E-03          27.5599823               27.573616                13.6334343E-03            1.79200637E-03         370.057556E-03           354.011169E+06            -2.49198437E+03         612.905945E+06           434.281372E+06           229.539246E+06            31.6382866E-06          199.274796E-06           -32.3957481E-09            1.88209081E-03         721.031189E-06            -1.04121804E-03         -75.3134308E-09            1.76224911E-03        -721.031189E-06          -841.943115E-06          -107.710548E-09             3.64434004E-03           0.                     467.066162E+06            35.9401321E+12           29.9411564E-06           46.1989059E-03 
                   7.32069826E-03          27.4791565               27.4908333               11.6761389E-03            1.53894866E-03         371.904968E-03           353.763458E+06             2.12290621E+03         606.746521E+06           423.170074E+06           226.404526E+06            27.0658817E-06          223.942368E-06            27.5983887E-09            1.86833215E-03         675.08551E-06           -846.309021E-06           -55.2672615E-09            1.52139449E-03        -675.08551E-06           -622.366638E-06           -27.6686478E-09            3.38972688E-03           0.                     461.226654E+06            30.8789749E+12           29.8533497E-06           46.0696793E-03 
                   7.57056093E-03          27.3987274               27.4090004               10.2710724E-03            1.35642564E-03         373.743408E-03           352.585144E+06             7.17481232E+03         599.67218E+06            411.241852E+06           223.60524E+06             23.7404785E-06          246.554794E-06            93.2727661E-09            1.85262036E-03         627.823059E-06          -715.626648E-06           -60.069397E-09             1.34344971E-03        -627.823059E-06          -469.071899E-06            33.2038345E-09            3.19607019E-03           0.                     454.499725E+06            27.2285156E+12           29.7659664E-06           45.9410019E-03 
                   7.8204608E-03           27.3182983               27.3271561                8.86177254E-03           1.17335463E-03         375.581787E-03           351.392975E+06            12.4548283E+03          592.571228E+06           399.309387E+06           221.148315E+06            20.4077282E-06          269.143768E-06           161.911652E-09             1.83680296E-03         580.600708E-06          -584.478271E-06           -63.1084671E-09            1.165079E-03          -580.600708E-06          -315.334595E-06            98.8052368E-09            3.00188184E-03           0.                     447.757874E+06            23.567091E+12            29.6785908E-06           45.8123322E-03 
                   8.07039452E-03          27.246973                27.2548313                7.85800266E-03           1.04213178E-03         377.212097E-03           349.423096E+06            14.8900623E+03          584.924438E+06           387.629669E+06           218.913025E+06            18.0286274E-06          288.284485E-06           193.571396E-09             1.81904304E-03         536.626892E-06          -498.370392E-06           -69.2261887E-09            1.03499734E-03        -536.626892E-06          -210.085938E-06           124.341576E-09             2.85404038E-03           0.                     440.659058E+06            20.9426327E+12           29.6011028E-06           45.6981659E-03 
                   8.32035351E-03          27.1756477               27.1825008                6.85213804E-03         910.650269E-06           378.842316E-03           347.451233E+06            15.3447657E+03          577.282715E+06           375.976196E+06           216.979843E+06            15.6456385E-06          307.367767E-06           199.482666E-09             1.80127239E-03         492.779816E-06          -411.97113E-06            -92.9178467E-09          904.750916E-06          -492.779816E-06          -104.603355E-06           106.564583E-09             2.70602369E-03           0.                     433.569977E+06            18.3130074E+12           29.5236168E-06           45.5840073E-03 
                   8.57033253E-03          27.1192245               27.1253586                6.13668919E-03         816.455261E-06           380.13208E-03            344.920715E+06            18.6599998E+03          569.592163E+06           365.316223E+06           215.199829E+06            13.9728765E-06          322.240906E-06           242.580429E-09             1.78260517E-03         454.81189E-06           -355.700653E-06           -84.1118927E-09          810.512573E-06          -454.81189E-06            -33.4596786E-06          158.470367E-09             2.59311771E-03           0.                     426.60968E+06             16.4291039E+12           29.4623127E-06           45.4936562E-03 
                   8.82033253E-03          27.0627975               27.0682144                5.41909122E-03         721.992676E-06           381.421844E-03           342.391388E+06            21.384922E+03           561.911682E+06           354.674683E+06           213.643707E+06            12.2958536E-06          337.077362E-06           278.003418E-09             1.76395929E-03         416.918732E-06          -299.142456E-06           -79.6421814E-09          716.061096E-06          -416.918732E-06            37.934906E-06           198.361252E-09             2.48002076E-03           0.                     419.659241E+06            14.539855E+12            29.4010143E-06           45.4033012E-03 
                   9.07034779E-03          27.0229034               27.0278091                4.90497923E-03         653.831116E-06           382.333618E-03           339.549866E+06            19.9992504E+03          554.603577E+06           345.364532E+06           212.206131E+06            11.1379852E-06          347.797089E-06           259.990906E-09             1.74564624E-03         385.592773E-06          -262.042175E-06           -85.6634903E-09          647.63501E-06           -385.592773E-06            85.7549286E-06          174.330124E-09             2.39328098E-03           0.                     413.172729E+06            13.1766233E+12           29.3576756E-06           45.3394051E-03 
                   9.32037449E-03          26.983017                26.9874058                4.38967323E-03         585.524231E-06           383.245392E-03           336.713226E+06            20.9724998E+03          547.312317E+06           336.072968E+06           210.919968E+06             9.97799015E-06         358.488251E-06           272.642883E-09             1.72738242E-03         354.326172E-06          -224.761551E-06           -74.1010818E-09          579.087708E-06          -354.326172E-06           133.726746E-06           198.54451E-09              2.30647016E-03           0.                     406.699493E+06            11.8104877E+12           29.3143425E-06           45.2755089E-03 
                   9.57041264E-03          26.9581146               26.9621277                4.013515E-03           535.339417E-06           383.814545E-03           333.792847E+06            18.8928127E+03          540.633484E+06           328.128845E+06           209.730011E+06             9.18410587E-06         365.82077E-06            245.605423E-09             1.71028459E-03         329.00473E-06           -199.712494E-06           -81.0373459E-09          528.717224E-06          -329.00473E-06            166.108307E-06           164.569427E-09             2.23900199E-03           0.                     400.851715E+06            10.8067894E+12           29.2872868E-06           45.2356033E-03 
                   9.82045746E-03          26.9332104               26.9368477                3.63585854E-03         484.962067E-06           384.383728E-03           330.877197E+06            18.120718E+03           533.958435E+06           320.183868E+06           208.63356E+06              8.38667679E-06         373.172302E-06           235.572098E-09             1.69320083E-03         303.666077E-06          -174.49559E-06            -81.5621185E-09          478.161652E-06          -303.666077E-06           198.676697E-06           154.007004E-09             2.1713624E-03            0.                     395.006531E+06             9.79924297E+12          29.2602348E-06           45.1957092E-03 
                  10.0705099E-03           26.9200287               26.9233799                3.3517251E-03          446.858734E-06           384.68515E-03            328.045197E+06            16.3603745E+03          527.963196E+06           313.422455E+06           207.615952E+06             7.83866358E-06         378.147583E-06           212.682617E-09             1.67761457E-03         283.099518E-06          -156.895004E-06           -77.0255585E-09          439.994537E-06          -283.099518E-06           221.252594E-06           135.657486E-09             2.11760902E-03           0.                     389.810272E+06             9.03717518E+12          29.2459068E-06           45.1745834E-03 
                  10.3205662E-03           26.9068375               26.9099083                3.06663799E-03         408.631805E-06           384.986572E-03           325.219788E+06            13.6452341E+03          521.971436E+06           306.659729E+06           206.6577E+06               7.28824663E-06         383.152374E-06           177.388748E-09             1.66203785E-03         262.511597E-06          -139.193176E-06           -78.3488846E-09          401.704773E-06          -262.511597E-06           243.959152E-06            99.0389633E-09            2.0637424E-03            0.                     384.616974E+06             8.27263546E+12          29.2315826E-06           45.15345E-03   
                  10.5706301E-03           26.9018497               26.9046974                2.84367681E-03         378.617432E-06           385.100647E-03           322.579437E+06            10.7902498E+03          516.618408E+06           300.855713E+06           205.762741E+06             6.90249157E-06         386.685944E-06           140.273178E-09             1.64793968E-03         245.481613E-06          -126.242043E-06           -76.5719452E-09          371.723663E-06          -245.481613E-06           260.443909E-06            63.7019196E-09            2.0196631E-03            0.                     380.017792E+06             7.67234755E+12          29.2261658E-06           45.1454582E-03 
                  10.820694E-03            26.896862                26.8994827                2.62014103E-03         348.527893E-06           385.2146E-03             319.942963E+06             9.3373127E+03          511.266449E+06           295.049408E+06           204.907471E+06             6.51519442E-06         390.241272E-06           121.384796E-09             1.63384342E-03         228.433044E-06          -113.233788E-06           -68.8392029E-09          341.666809E-06          -228.433044E-06           277.007446E-06            52.5451469E-09            1.97551024E-03           0.                     375.419647E+06             7.07055807E+12          29.2207451E-06           45.1374664E-03 
                  11.0707655E-03           26.8970623               26.899498                 2.43800163E-03         323.948486E-06           385.210052E-03           317.547119E+06             7.0953126E+03          506.475708E+06           289.996094E+06           204.103516E+06             6.23438215E-06         393.028046E-06            92.2409515E-09            1.62106371E-03         213.946045E-06          -103.241676E-06           -68.1118317E-09          317.187744E-06          -213.946045E-06           289.786377E-06            24.1270752E-09            1.9382515E-03            0.                     371.339661E+06             6.57897043E+12          29.2209587E-06           45.1377869E-03 
                  11.3208408E-03           26.8972607               26.8995132                2.25533533E-03         299.299103E-06           385.205505E-03           315.152252E+06             4.36667204E+03         501.680786E+06           284.936066E+06           203.327515E+06             5.95212984E-06         395.835846E-06            56.7654305E-09            1.6082716E-03          199.430664E-06           -93.2073135E-06          -69.6039734E-09          292.638E-06             -199.430664E-06           302.628571E-06           -12.8388824E-09            1.90090942E-03           0.                     367.256317E+06             6.08598185E+12          29.2211761E-06           45.1380997E-03 
                  11.5709152E-03           26.900425                26.902523                 2.10103989E-03         278.450653E-06           385.13324E-03            313.01123E+06              3.15362501E+03         497.36203E+06            280.464508E+06           202.594467E+06             5.7380476E-06          398.316223E-06            40.9968376E-09            1.5965966E-03          186.762726E-06           -85.1737442E-06          -65.1396103E-09          271.936432E-06          -186.762726E-06           313.142517E-06           -24.1443558E-09            1.86853302E-03           0.                     363.612549E+06             5.66901302E+12          29.2246113E-06           45.1431694E-03 
                  11.8209982E-03           26.9035873               26.9055367                1.94644976E-03         257.562897E-06           385.060852E-03           310.871948E+06             1.14432812E+03         493.041412E+06           275.989594E+06           201.883591E+06             5.52311468E-06         400.813202E-06            14.8788786E-09            1.58491457E-03         174.077988E-06           -77.1170807E-06          -63.9331551E-09          251.195038E-06          -174.077988E-06           323.696075E-06           -49.0558701E-09            1.83610988E-03           0.                     359.967621E+06             5.25125837E+12          29.2280483E-06           45.1482391E-03 
                  12.0710764E-03           26.9082317               26.9100456                1.81205535E-03         239.396393E-06           384.954742E-03           308.978394E+06            73.65625                489.12146E+06            271.980743E+06           201.209412E+06             5.35153246E-06         403.238617E-06           957.697937E-12             1.57416856E-03         162.754013E-06           -70.4560623E-06          -60.0325623E-09          233.210068E-06          -162.754013E-06           332.782562E-06           -59.0762291E-09            1.80737841E-03           0.                     356.693542E+06             4.88792849E+12          29.2330952E-06           45.1556816E-03 
                  12.3211594E-03           26.9128723               26.9145508                1.67749488E-03         221.207642E-06           384.848663E-03           307.085144E+06          -754.28125                485.199615E+06           267.96936E+06            200.55397E+06              5.17942429E-06         405.671967E-06            -9.80571747E-09           1.5634166E-03          151.419739E-06           -63.7828178E-06          -55.5909882E-09          215.202591E-06          -151.419739E-06           341.88913E-06            -65.3969955E-09            1.77861917E-03           0.                     353.41806E+06              4.52415323E+12          29.2381344E-06           45.1631165E-03 
                  12.5712452E-03           26.918047                26.9196053                1.55803752E-03         205.063278E-06           384.730438E-03           305.422638E+06            -1.53496873E+03         481.620361E+06           264.338562E+06           199.931168E+06             5.0350275E-06          408.1745E-06             -19.9543152E-09            1.55346E-03            141.128357E-06           -58.1393661E-06          -52.5195656E-09          199.2677E-06            -141.128357E-06           350.035126E-06           -72.4744415E-09            1.7527281E-03            0.                     350.46048E+06              4.20126629E+12          29.2437534E-06           45.1714134E-03 
                  12.8213358E-03           26.9232216               26.9246597                1.43845546E-03         188.902206E-06           384.612213E-03           303.759827E+06            -2.49668741E+03         478.039032E+06           260.705292E+06           199.324966E+06             4.89024448E-06         410.682556E-06           -32.4562263E-09            1.54349768E-03         130.828094E-06           -52.4879799E-06          -50.1531754E-09          183.316071E-06          -130.828094E-06           358.19458E-06            -82.6093979E-09            1.72681355E-03           0.                     347.501343E+06             3.87804389E+12          29.2493725E-06           45.1796951E-03 
                  13.0714254E-03           26.9283981               26.9297276                1.33107138E-03         174.396622E-06           384.493896E-03           302.305573E+06            -3.10812497E+03         474.757935E+06           257.396942E+06           198.749115E+06             4.76417065E-06         413.295563E-06           -40.4061241E-09            1.53423607E-03         121.389427E-06           -47.6547203E-06          -47.4403801E-09          169.044128E-06          -121.389427E-06           365.640869E-06           -87.8458252E-09            1.70328009E-03           0.                     344.82016E+06              3.58793259E+12          29.2549992E-06           45.1879921E-03 
                  13.3215189E-03           26.9335747               26.9347973                1.22361612E-03         159.881454E-06           384.375519E-03           300.851166E+06            -3.67600012E+03         471.475586E+06           254.087143E+06           198.188416E+06             4.63786697E-06         415.911957E-06           -47.788147E-09             1.52497053E-03         111.945358E-06           -42.8173256E-06          -44.8221169E-09          154.76268E-06           -111.945358E-06           373.094604E-06           -92.6097565E-09            1.67973328E-03           0.                     342.138031E+06             3.29762936E+12          29.2606258E-06           45.1962891E-03 
                  13.5716124E-03           26.9384689               26.9395962                1.12655294E-03         146.778183E-06           384.26358E-03            299.584198E+06            -4.04696894E+03         468.463654E+06           251.065125E+06           197.656891E+06             4.52503538E-06         418.627899E-06           -52.6110878E-09            1.51634443E-03         103.253838E-06           -38.6600647E-06          -41.9498177E-09          141.91391E-06           -103.253838E-06           379.967834E-06           -94.5606155E-09            1.6582582E-03            0.                     339.704346E+06             3.03556371E+12          29.2659435E-06           45.2041321E-03 
                  13.8217096E-03           26.943367                26.944397                 1.02943182E-03         133.667114E-06           384.151642E-03           298.317017E+06            -4.57776546E+03         465.450439E+06           248.041733E+06           197.139206E+06             4.41204882E-06         421.346802E-06           -59.5102844E-09            1.50771379E-03          94.5575485E-06          -34.499897E-06           -39.7091789E-09          129.057434E-06           -94.5575485E-06          386.846893E-06           -99.2204208E-09            1.63677156E-03           0.                     337.269714E+06             2.77334261E+12          29.271265E-06            45.2119789E-03 
                  14.0718069E-03           26.9478607               26.9488049              941.663025E-06           121.826126E-06           384.04892E-03            297.216614E+06            -4.53518772E+03         462.68811E+06            245.283264E+06           196.650406E+06             4.30987453E-06         424.126282E-06           -58.9575386E-09            1.49969065E-03          86.5591354E-06          -30.9289894E-06          -35.8991776E-09          117.488113E-06           -86.5591354E-06          393.197327E-06           -94.8566589E-09            1.61717892E-03           0.                     335.062653E+06             2.53652263E+12          29.2761517E-06           45.2191811E-03 
                  14.3219042E-03           26.9523582               26.9532127              853.883118E-06           109.983604E-06           383.946136E-03           296.116394E+06            -4.61226559E+03         459.925568E+06           242.524521E+06           196.174347E+06             4.20764065E-06         426.90686E-06            -59.960144E-09             1.49166656E-03          78.5596924E-06          -27.3577766E-06          -32.5207748E-09          105.917465E-06           -78.5596924E-06          399.549164E-06           -92.4800339E-09            1.59758377E-03           0.                     332.85556E+06              2.29967237E+12          29.2810326E-06           45.2263794E-03 
                  14.5720053E-03           26.9564209               26.9571953              774.83667E-06             99.3257675E-06          383.853302E-03           295.164612E+06            -4.60317183E+03         457.402496E+06           240.017181E+06           195.727798E+06             4.11496019E-06         429.693787E-06           -59.841114E-09             1.48423946E-03          71.2352371E-06          -24.3085938E-06          -29.6463718E-09           95.5438461E-06          -71.2352371E-06          405.385162E-06           -89.4872284E-09            1.57978344E-03           0.                     330.86145E+06              2.08651543E+12          29.2854443E-06           45.2328911E-03 
                  14.8221064E-03           26.9604797               26.961174               695.768433E-06            88.664978E-06           383.760529E-03           294.212677E+06            -4.45778131E+03         454.878723E+06           237.509186E+06           195.292542E+06             4.02223969E-06         432.481689E-06           -57.9511833E-09            1.47681081E-03          63.9088516E-06          -21.2585239E-06          -26.6429958E-09           85.1673813E-06          -63.9088516E-06          411.223175E-06           -84.5934677E-09            1.5619781E-03            0.                     328.866882E+06             1.87329972E+12          29.289856E-06            45.2393951E-03 
                  15.0722113E-03           26.9641171               26.9647427              625.011719E-06            79.1300507E-06          383.677368E-03           293.394653E+06            -5.01276541E+03         452.588348E+06           235.244644E+06           194.887573E+06             3.93839049E-06         435.223846E-06           -65.1652985E-09            1.46998262E-03          57.2486839E-06          -18.6749439E-06          -24.9031315E-09           75.9236298E-06          -57.2486839E-06          416.54892E-06            -90.0688553E-09            1.54590631E-03           0.                     327.075867E+06             1.68260109E+12          29.2938099E-06           45.245224E-03  
                  15.3223162E-03           26.9677525               26.9683075              554.232239E-06            69.5920258E-06          383.594269E-03           292.576569E+06            -5.42814064E+03         450.297394E+06           232.979477E+06           194.492599E+06             3.85456538E-06         437.967712E-06           -70.5649643E-09            1.46315277E-03          50.5864601E-06          -16.0904369E-06          -23.0348148E-09           66.6769104E-06          -50.5864601E-06          421.877289E-06           -93.6001892E-09            1.52982962E-03           0.                     325.284454E+06             1.49184036E+12          29.29776E-06             45.2510529E-03 
                  15.5724211E-03           26.9710102               26.9715042              491.536163E-06            61.1473351E-06          383.519806E-03           291.879517E+06            -4.84371853E+03         448.238678E+06           230.954926E+06           194.12912E+06              3.77941442E-06         440.607269E-06           -62.9688644E-09            1.45694172E-03          44.5972176E-06          -13.9264193E-06          -20.132021E-09            58.5236359E-06          -44.5972176E-06          426.680878E-06           -83.1005249E-09            1.5154655E-03            0.                     323.69104E+06              1.32294703E+12          29.3012981E-06           45.2562714E-03 
                  15.8225298E-03           26.974268                26.9746933              428.856842E-06            52.704895E-06           383.445312E-03           291.181183E+06            -4.77526569E+03         446.179688E+06           228.930176E+06           193.774445E+06             3.70437336E-06         443.241333E-06           -62.0784683E-09            1.45073116E-03          38.6096153E-06          -11.7629642E-06          -17.8365707E-09           50.3725853E-06          -38.6096153E-06          431.478333E-06           -79.9150314E-09            1.50110364E-03           0.                     322.096954E+06             1.15409815E+12          29.3048363E-06           45.2614861E-03 
                  16.0726337E-03           26.977169                26.9775429              373.974823E-06            45.3158226E-06          383.379028E-03           290.593811E+06            -5.25673437E+03         444.352173E+06           227.142746E+06           193.452347E+06             3.63613915E-06         445.726746E-06           -68.3373871E-09            1.4451561E-03           33.2946548E-06           -9.97323513E-06         -16.4725399E-09           43.2678947E-06          -33.2946548E-06          435.75351E-06            -84.8103867E-09            1.48842406E-03           0.                     320.696259E+06             1.00631642E+12          29.3079872E-06           45.2661362E-03 
                  16.3227425E-03           26.980072                26.9803867              319.088959E-06            37.9262199E-06          383.312836E-03           290.005981E+06            -5.12291384E+03         442.524414E+06           225.355103E+06           193.137405E+06             3.56837487E-06         448.210754E-06           -66.5977554E-09            1.43958044E-03          27.9797287E-06           -8.18284607E-06         -14.5518427E-09           36.1625786E-06          -27.9797287E-06          440.027924E-06           -81.1498947E-09            1.47574329E-03           0.                     319.295197E+06           858.524414E+09            29.3111401E-06           45.2707787E-03 
                  16.572855E-03            26.9826736               26.9829445              271.992767E-06            31.5876865E-06          383.253265E-03           289.520386E+06            -5.82143736E+03         440.934479E+06           223.808853E+06           192.857147E+06             3.50306773E-06         450.486847E-06           -75.6788254E-09            1.43467832E-03          23.3620586E-06           -6.7303834E-06          -13.3241901E-09           30.0924454E-06          -23.3620586E-06          443.756531E-06           -89.0031509E-09            1.46477091E-03           0.                     318.08786E+06            731.753784E+09            29.3139668E-06           45.2749519E-03 
                  16.8229675E-03           26.9852753               26.9855003              224.872406E-06            25.2458839E-06          383.193726E-03           289.032501E+06            -6.47345686E+03         439.342468E+06           222.260925E+06           192.582382E+06             3.43953085E-06         452.757416E-06           -84.1550369E-09            1.4297725E-03           18.7420464E-06           -5.27717543E-06         -12.078351E-09            24.0192223E-06          -18.7420464E-06          447.480164E-06           -96.2333527E-09            1.45379174E-03           0.                     316.878662E+06           604.917664E+09            29.3167915E-06           45.2791176E-03 
                  17.0730801E-03           26.9875889               26.987772               185.277771E-06            19.9186878E-06          383.1409E-03             288.645264E+06            -7.05778122E+03         437.992584E+06           220.954742E+06           192.343536E+06             3.36850309E-06         454.805084E-06           -91.751297E-09             1.42556286E-03          14.8171453E-06           -4.11983013E-06         -10.8527918E-09           18.9369755E-06          -14.8171453E-06          450.685333E-06          -102.603851E-09             1.44449973E-03           0.                     315.864197E+06           498.373779E+09            29.3193054E-06           45.2828255E-03 
                  17.3231926E-03           26.9898968               26.9900436              145.639755E-06            14.5856447E-06          383.088074E-03           288.257294E+06            -7.69468737E+03         436.641144E+06           219.647171E+06           192.108688E+06             3.29988241E-06         456.854156E-06          -100.031235E-09             1.42134881E-03          10.8882198E-06           -2.9608438E-06           -9.64707375E-09          13.849062E-06           -10.8882198E-06          453.893402E-06          -109.678238E-09             1.43519771E-03           0.                     314.848511E+06           391.71283E+09             29.3218174E-06           45.2865295E-03 
                  17.5733089E-03           26.992033                26.9921436              113.724014E-06            10.2927408E-06          383.039368E-03           287.96402E+06            -12.5225153E+03          435.542725E+06           218.590988E+06           191.911606E+06             3.13111258E-06         458.619568E-06          -162.792847E-09             1.41788113E-03           7.69480944E-06          -2.07276893E-06          -8.43630219E-09           9.76757812E-06          -7.69480944E-06         456.546814E-06          -171.229324E-09             1.42764854E-03           0.                     314.032562E+06           305.854797E+09            29.324131E-06            45.2899399E-03 
                  17.8234177E-03           26.9941616               26.9942455               81.7462845E-06            5.99151564E-06         382.990601E-03           287.674072E+06           -15.0600739E+03          434.444427E+06           217.534531E+06           191.717255E+06             3.12092066E-06         460.401855E-06          -195.780899E-09             1.4144094E-03            4.49486637E-06          -1.18351698E-06          -7.41807747E-09           5.67838383E-06          -4.49486637E-06         459.218323E-06          -203.198792E-09             1.42008781E-03           0.                     313.217651E+06           219.830307E+09            29.3264503E-06           45.2933617E-03 
                  18.0735321E-03           26.9958534               26.9959145               58.6858025E-06            2.89051318E-06         382.951935E-03           287.459503E+06            -8.91848469E+03         433.648285E+06           216.766357E+06           191.580856E+06             2.05805397E-06         461.675659E-06          -115.940224E-09             1.41190267E-03           2.16999197E-06        -568.7146E-09              -5.65643787E-09           2.73870635E-06          -2.16999197E-06         461.106903E-06          -121.596718E-09             1.41464126E-03           0.                     312.624725E+06           157.810287E+09            29.3282871E-06           45.2960663E-03 
                  18.3236485E-03           26.9975471               26.9975796               34.2798805E-06         -391.353668E-09           382.913269E-03           287.256836E+06            -5.74874592E+03         432.894714E+06           215.987137E+06           191.492355E+06           120.850899E-09           462.961243E-06           -74.7337189E-09            1.40960741E-03        -291.485199E-09            80.4241486E-09           -4.13809013E-09        -371.909424E-09           291.485199E-09           463.041687E-06           -78.8719177E-09            1.40923536E-03           0.                     312.046143E+06            92.1729202E+09           29.3301258E-06           45.2987785E-03 
                  18.5737648E-03           26.9979572               26.9979935               35.5838661E-06         -215.99707E-09            382.90387E-03            287.054779E+06            -4.63628912E+03         432.113342E+06           215.718018E+06           190.994583E+06          -215.99707E-09            463.526855E-06           -60.2715302E-09            1.40640736E-03        -162.010941E-09            42.7072601E-09           -1.49473643E-09        -204.718185E-09           162.010941E-09           463.569519E-06           -61.7662888E-09            1.40620255E-03           0.                     311.628723E+06            95.6800613E+09           29.3305721E-06           45.2994385E-03 
                  18.8238811E-03           26.9983692               26.9984055               37.7787437E-06           79.0604172E-09          382.894531E-03           286.850952E+06            -8.32262802E+03         431.317841E+06           215.462524E+06           190.47377E+06             79.0604172E-09          464.08432E-06           -108.193954E-09             1.40311921E-03          59.3001213E-09          -15.6319418E-09          547.111572E-12            74.9320602E-09          -59.3001213E-09          464.068726E-06          -107.646835E-09             1.40319419E-03           0.                     311.21048E+06            101.5812E+09              29.3310165E-06           45.3000946E-03 
                  19.0740013E-03           26.9985409               26.9985771               37.1909981E-06            0.                     382.890533E-03           286.759888E+06            -7.90749979E+03         430.85321E+06            215.283936E+06           190.186508E+06             0.                     464.593597E-06          -102.797577E-09             1.40120041E-03           0.                       0.                       0.                       0.                       0.                     464.593597E-06          -102.797577E-09             1.40120041E-03           0.                     310.965668E+06           100.E+09                  29.3312016E-06           45.3003731E-03 
                  19.3241158E-03           26.9987106               26.9987564               37.1912308E-06            0.                     382.886597E-03           286.652344E+06            -4.50504494E+03         430.363281E+06           215.104675E+06           189.879135E+06             0.                     465.059937E-06           -58.5656395E-09            1.39918077E-03           0.                       0.                       0.                       0.                       0.                     465.059937E-06           -58.5656395E-09            1.39918077E-03           0.                     310.706787E+06            99.9999924E+09           29.3313961E-06           45.3006477E-03 
                  19.5742321E-03           26.9987888               26.9988251               37.1913223E-06            0.                     382.884888E-03           286.612915E+06            -1.83900881E+03         430.203949E+06           215.045029E+06           189.781067E+06             0.                     465.190918E-06           -23.9070892E-09            1.39853287E-03           0.                       0.                       0.                       0.                       0.                     465.190918E-06           -23.9070892E-09            1.39853287E-03           0.                     310.620636E+06           100.E+09                  29.3314743E-06           45.3007622E-03 
                  19.8243446E-03           26.9988632               26.9988976               37.1914139E-06            0.                     382.88324E-03            286.579895E+06             2.78587103E+03         430.046021E+06           214.987747E+06           189.681351E+06             0.                     465.348907E-06            36.2163353E-09            1.39787841E-03           0.                       0.                       0.                       0.                       0.                     465.348907E-06            36.2163353E-09            1.39787841E-03           0.                     310.537842E+06            99.9999924E+09           29.3315544E-06           45.3008919E-03 




