
                     X                      Cbar_L                 Cbar_total               Cbar_trap                   PEEQ                  PSI_Cbar_L                  S_11                     S_12                     S_22                     S_33                   S_Mises                   dPEEQ                eps_elastic_11           eps_elastic_12           eps_elastic_22           eps_elastic_33           eps_plastic_11           eps_plastic_12           eps_plastic_22           eps_plastic_33            eps_total_11             eps_total_12             eps_total_22             eps_total_33          hydrostatic_stress             rho_d                   theta_L                 theta_trap      

                   0.                       0.                       0.                       0.                       0.                       0.                       0.                       0.                       0.                       0.                       0.                       0.                       0.                       0.                       0.                       0.                       0.                       0.                       0.                       0.                       0.                       0.                       0.                       0.                       0.                       0.                       0.                       0.            
                   1.E+03                  27.                      27.0000343               37.1929207E-06            0.                     382.857178E-03           -34.293499E+03          -287.852264E+03           124.844185E+06            37.4429665E+06          110.992455E+06             0.                    -243.602203E-06            -3.7420795E-06          568.108032E-06             0.                       0.                       0.                       0.                       0.                    -243.602203E-06            -3.7420795E-06          568.108032E-06             0.                      54.0842896E+06           99.9999924E+09           29.3327942E-06           45.3027191E-03 
                   2.E+03                  27.0775547               27.0781136              562.598694E-06            70.4740982E-06          381.084625E-03           874.461975E+03            -1.16770375E+06         243.333588E+06            76.5568619E+06          214.868484E+06            70.4740982E-06         -475.463348E-06           -15.1801434E-06            1.10052121E-03          16.4722061E-06          -50.7209129E-06          -13.4935198E-06           67.1931229E-06          -16.4722061E-06         -526.184326E-06           -28.6736393E-06            1.16771436E-03           0.                     106.921638E+06             1.50948167E+12          29.417038E-06            45.4269218E-03 
                   3.E+03                  26.9463692               26.9533062                6.93552208E-03         928.378906E-06           384.083038E-03          -337.393005E+03           411.898499E+03           257.636292E+06           102.782776E+06           224.905334E+06           857.904785E-06          -542.315552E-06             5.35465336E-06           1.13451326E-03         127.965553E-06          -749.489319E-06           -21.2895756E-06          877.454895E-06          -127.965553E-06            -1.29180503E-03         -15.9348917E-06            2.01196814E-03           0.                     120.027237E+06            18.6675777E+12           29.2745285E-06           45.2168083E-03 
                   4.E+03                  26.6421738               26.6564941               14.3169603E-03            1.94022012E-03         391.036041E-03            -2.409096E+06           350.013E+03              282.2901E+06             123.955772E+06           247.075073E+06             1.01184106E-03        -621.414429E-06             4.55016565E-06           1.22913051E-03         199.957352E-06            -1.60816729E-03         -45.5877686E-06            1.8081243E-03         -199.957352E-06            -2.22958159E-03         -41.0375366E-06            3.03725505E-03           0.                     134.612244E+06            38.9043999E+12           28.9440517E-06           44.7293434E-03 
                   5.E+03                  26.6616669               26.6841183               22.4510136E-03            3.04523921E-03         390.590546E-03            -1.90504193E+06         837.209473E+03           306.517639E+06           141.20195E+06            267.336517E+06             1.10501933E-03        -681.104614E-06            10.8837194E-06            1.32364309E-03         249.090683E-06            -2.56503582E-03         -45.2804527E-06            2.81412673E-03        -249.090683E-06            -3.24614024E-03         -34.3968582E-06            4.13776922E-03           0.                     148.604843E+06            61.0047913E+12           28.9652233E-06           44.7605553E-03 
                   6.E+03                  26.6437511               26.6756725               31.9175644E-03            4.33521795E-03         390.999908E-03            -2.24154806E+06         713.473022E+03           323.682434E+06           153.456131E+06           282.354614E+06             1.28997838E-03        -726.915527E-06             9.27518654E-06           1.3915906E-03          285.119293E-06            -3.69258285E-03         -52.4509506E-06            3.97770286E-03        -285.119293E-06            -4.41949844E-03         -43.1758537E-06            5.36929274E-03           0.                     158.299026E+06            86.8043594E+12           28.9457684E-06           44.7317963E-03 
                   7.E+03                  26.5714302               26.6138802               42.4476204E-03            5.78158236E-03         392.652985E-03            -2.37864804E+06         948.281006E+03           340.015503E+06           163.730804E+06           296.570221E+06             1.44636464E-03        -767.512756E-06            12.3276405E-06            1.45804954E-03         312.198883E-06            -4.96378136E-03         -58.0481987E-06            5.27597952E-03        -312.198883E-06            -5.7312932E-03          -45.7205734E-06            6.73402834E-03           0.                     167.122559E+06           115.731651E+12            28.8671989E-06           44.6158295E-03 
                   8.E+03                  26.4927101               26.5467339               54.0251503E-03            7.37993526E-03         394.452454E-03            -2.46422601E+06           1.06703401E+06         356.044708E+06           172.884552E+06           310.507904E+06             1.59835184E-03        -805.715027E-06            13.8714828E-06            1.524593E-03           334.051971E-06            -6.37292194E-03         -61.5449944E-06            6.70697498E-03        -334.051971E-06            -7.17863703E-03         -47.6732979E-06            8.23156738E-03           0.                     175.488312E+06           147.698669E+12            28.7816696E-06           44.4895401E-03 
                   9.E+03                  26.4387207               26.5056496               66.929657E-03             9.16134453E-03         395.686523E-03            -2.57202387E+06           1.192276E+06           371.480103E+06           181.275024E+06           323.960846E+06             1.78140974E-03        -841.992737E-06            15.499609E-06             1.58934593E-03         353.013153E-06            -7.94660282E-03         -60.7328262E-06            8.29961681E-03        -353.013153E-06            -8.78859711E-03         -45.2335205E-06            9.8889637E-03            0.                     183.394348E+06           183.326859E+12            28.7230148E-06           44.4029236E-03 
                  10.E+03                  26.3845844               26.4654961               80.9079285E-03           11.0967484E-03          396.923706E-03            -2.67085409E+06           1.31184399E+06         385.687744E+06           188.836792E+06           336.34668E+06              1.93540454E-03        -875.141113E-06            17.053957E-06             1.64918947E-03         369.658722E-06            -9.65804195E-03         -59.7421303E-06           10.0277014E-03         -369.658722E-06           -10.5331821E-03          -42.6879272E-06           11.6768885E-03            0.                     190.617905E+06           222.034958E+12            28.6642075E-06           44.3160439E-03 
                  11.E+03                  26.3342934               26.4282703               93.9744263E-03           12.9125366E-03          398.073334E-03            -2.75086021E+06           1.39177692E+06         397.650085E+06           195.074661E+06           346.773865E+06             1.81578827E-03        -902.841309E-06            18.0930729E-06            1.69976461E-03         383.024536E-06           -11.2647409E-03          -58.9926491E-06           11.6477623E-03         -383.024536E-06           -12.1675825E-03          -40.8996735E-06           13.3475285E-03            0.                     196.65799E+06            258.350739E+12            28.6095638E-06           44.2353249E-03 
                  12.E+03                  26.2829037               26.3887959              105.889786E-03            14.5767632E-03          399.247894E-03            -2.81966996E+06           1.45810401E+06         407.695374E+06           200.253799E+06           355.532135E+06             1.66422594E-03        -926.022034E-06            18.9553318E-06            1.74232566E-03         393.955414E-06           -12.7382078E-03          -56.3430367E-06           13.1321592E-03         -393.955414E-06           -13.6642256E-03          -37.3877144E-06           14.8744869E-03            0.                     201.709854E+06           291.635254E+12            28.5537395E-06           44.152832E-03  
                  13.E+03                  26.2385941               26.3557472              117.153465E-03            16.1532574E-03          400.260864E-03            -2.88489985E+06           1.52028501E+06         416.617889E+06           204.810974E+06           363.31543E+06              1.57649493E-03        -946.567749E-06            19.7636986E-06            1.78020048E-03         403.455536E-06           -14.1345568E-03          -52.4345093E-06           14.5380144E-03         -403.455536E-06           -15.0811262E-03          -32.6709099E-06           16.3182144E-03            0.                     206.181305E+06           323.165131E+12            28.5056E-06              44.0816727E-03 
                  14.E+03                  26.1993542               26.3273621              128.003845E-03            17.6745415E-03          401.157623E-03            -2.94740987E+06           1.578089E+06           424.616486E+06           208.889832E+06           370.296417E+06             1.52128446E-03        -964.996399E-06            20.5151367E-06            1.81416881E-03         411.945526E-06           -15.482419E-03           -47.7321434E-06           15.8943644E-03         -411.945526E-06           -16.4474163E-03          -27.2163906E-06           17.7085323E-03            0.                     210.186279E+06           353.590881E+12            28.4629765E-06           44.0186691E-03 
                  15.E+03                  26.1626244               26.3012085              138.585419E-03            19.1612167E-03          401.997223E-03            -3.00693417E+06           1.63581705E+06         431.937408E+06           212.616623E+06           376.688019E+06             1.4866749E-03         -981.865967E-06            21.2656288E-06            1.84527314E-03         419.687408E-06           -16.7999153E-03          -42.5226746E-06           17.2195988E-03         -419.687408E-06           -17.7817783E-03          -21.2576714E-06           19.0648727E-03            0.                     213.849106E+06           383.32431E+12             28.4230633E-06           43.9596786E-03 
                  16.E+03                  26.1280651               26.2770615              148.989029E-03            20.6255569E-03          402.787018E-03            -3.0641818E+06            1.69324303E+06         438.759613E+06           216.079971E+06           382.645935E+06             1.46433914E-03        -997.580139E-06            22.0121593E-06            1.87427425E-03         426.85672E-06            -18.0978413E-03          -36.8927116E-06           18.5246964E-03         -426.85672E-06            -19.0954208E-03          -14.8804388E-06           20.3989735E-03            0.                     217.258453E+06           412.611084E+12            28.3855209E-06           43.9041748E-03 
                  17.E+03                  26.0957298               26.2550087              159.277603E-03            22.0758553E-03          403.526245E-03            -3.12095594E+06           1.74829006E+06         445.176178E+06           219.330414E+06           388.252228E+06             1.45029855E-03          -1.01236463E-03          22.7277203E-06            1.90156674E-03         433.569E-06              -19.3835011E-03          -30.9346943E-06           19.8170719E-03         -433.569E-06              -20.3958721E-03           -8.20728016E-06          21.7186413E-03            0.                     220.461853E+06           441.617004E+12            28.3503914E-06           43.8522301E-03 
                  18.E+03                  26.0653133               26.234808               169.495636E-03            23.518137E-03           404.221466E-03            -3.17808008E+06           1.80001295E+06         451.249481E+06           222.401993E+06           393.561523E+06             1.44228053E-03          -1.02636743E-03          23.4000912E-06            1.9274112E-03          439.902985E-06           -20.662199E-03           -24.726965E-06            21.1021023E-03         -439.902985E-06           -21.6885662E-03           -1.32690179E-06          23.0295162E-03            0.                     223.491119E+06           470.462646E+12            28.3173466E-06           43.8033562E-03 
                  19.E+03                  26.036541                26.2162094              179.67305E-03             24.9564724E-03          404.879272E-03            -3.23580194E+06           1.84775901E+06         457.030457E+06           225.321411E+06           398.618256E+06             1.43833625E-03          -1.03970683E-03          24.0208626E-06            1.95202374E-03         445.915253E-06           -21.9375229E-03          -18.3195801E-06           22.3834381E-03         -445.915253E-06           -22.9772339E-03            5.70202255E-06          24.3354626E-03            0.                     226.371964E+06           499.229431E+12            28.2860851E-06           43.757122E-03  
                  20.E+03                  26.0092621               26.199091               189.827972E-03            26.3932533E-03          405.502594E-03            -3.29447007E+06           1.891662E+06           462.557007E+06           228.1082E+06             403.455414E+06             1.43678737E-03          -1.05247009E-03          24.5915432E-06            1.975564E-03           451.647186E-06           -23.211565E-03           -11.7922897E-06           23.6632156E-03         -451.647186E-06           -24.2640381E-03           12.7995157E-06           25.6387787E-03            0.                     229.12355E+06            527.965088E+12            28.2564545E-06           43.713295E-03  
                  21.E+03                  25.9833794               26.1833553              199.974152E-03            27.830265E-03           406.094208E-03            -3.35353804E+06           1.93202507E+06         467.858063E+06           230.777725E+06           408.097595E+06             1.43700802E-03          -1.06472123E-03          25.1163731E-06            1.99815381E-03         457.131775E-06           -24.4858894E-03           -5.16383457E-06          24.9430237E-03         -457.131775E-06           -25.5506172E-03           19.9520741E-06           26.9411812E-03            0.                     231.760727E+06           556.705261E+12            28.2283325E-06           43.6717033E-03 
                  22.E+03                  25.9587688               26.1688919              210.119812E-03            29.2685814E-03          406.65686E-03             -3.4127562E+06            1.96925199E+06         472.955933E+06           233.341888E+06           412.563965E+06             1.43831205E-03          -1.07651043E-03          25.6002369E-06            2.01988602E-03         462.394775E-06           -25.7614555E-03            1.56846368E-06          26.2238541E-03         -462.394775E-06           -26.8379593E-03           27.1687756E-06           28.2437325E-03            0.                     234.295044E+06           585.471558E+12            28.2015934E-06           43.6321411E-03 
                  23.E+03                  25.9353123               26.1555786              220.272781E-03            30.7091961E-03          407.192871E-03            -3.47186208E+06           2.0040369E+06          477.870697E+06           235.811234E+06           416.871643E+06             1.44061971E-03          -1.08788204E-03          26.0524387E-06            2.04084444E-03         467.458069E-06           -27.0391331E-03            8.4093771E-06           27.5065899E-03         -467.458069E-06           -28.1270123E-03           34.461731E-06            29.5474262E-03            0.                     236.736679E+06           614.283875E+12            28.176115E-06            43.5944366E-03 
                  24.E+03                  25.9129276               26.1433678              230.435837E-03            32.1524391E-03          407.704529E-03            -3.53070998E+06           2.03672099E+06         482.617462E+06           238.193832E+06           421.03363E+06              1.44324219E-03          -1.09887075E-03          26.4773102E-06            2.06109285E-03         472.338959E-06           -28.3191967E-03           15.3637953E-06           28.7915325E-03         -472.338959E-06           -29.418066E-03            41.8415298E-06           30.8526268E-03            0.                     239.093552E+06           643.148865E+12            28.1517982E-06           43.5584717E-03 
                  25.E+03                  25.896307                26.1369591              240.650726E-03            33.5986061E-03          408.084381E-03            -3.58933783E+06           2.06786013E+06         487.209656E+06           240.496597E+06           425.061523E+06             1.44616067E-03          -1.10950601E-03          26.8821602E-06            2.08068752E-03         477.052429E-06           -29.601902E-03            22.3941174E-06           30.0789509E-03         -477.052429E-06           -30.7114067E-03           49.2755775E-06           32.1596413E-03            0.                     241.372238E+06           672.072083E+12            28.1337414E-06           43.5317497E-03 
                  26.E+03                  25.8737507               26.1245918              250.83548E-03             35.0493355E-03          408.599915E-03            -3.64803004E+06           2.09243798E+06         491.558075E+06           242.687943E+06           428.878235E+06             1.45073247E-03          -1.11960924E-03          27.2016773E-06            2.09923053E-03         481.574402E-06           -30.8887062E-03           29.299408E-06            31.3702812E-03         -481.574402E-06           -32.008316E-03            56.5019455E-06           33.4695129E-03            0.                     243.532654E+06           701.086731E+12            28.1092396E-06           43.4954834E-03 
                  27.E+03                  25.8524094               26.1134281              261.021851E-03            36.5011215E-03          409.087769E-03            -3.70619416E+06           2.12467694E+06         495.917114E+06           244.85939E+06            432.703949E+06             1.45178378E-03          -1.12969577E-03          27.6208019E-06            2.11785603E-03         485.980713E-06           -32.1765099E-03           36.5741997E-06           32.6624908E-03         -485.980713E-06           -33.3062019E-03           64.194664E-06            34.7803459E-03            0.                     245.690109E+06           730.122437E+12            28.0860519E-06           43.461174E-03  
                  28.E+03                  25.8335705               26.1048107              271.237366E-03            37.9559746E-03          409.518372E-03            -3.76373386E+06           2.15194607E+06         500.144501E+06           246.968475E+06           436.414978E+06             1.45484948E-03          -1.1394881E-03           27.9752712E-06            2.13591599E-03         490.270905E-06           -33.4670601E-03           43.9556313E-06           33.9573326E-03         -490.270905E-06           -34.6065521E-03           71.9313965E-06           36.0932465E-03            0.                     247.783081E+06           759.219299E+12            28.0655785E-06           43.4308815E-03 
                  29.E+03                  25.8155937               26.0970612              281.46991E-03             39.4139862E-03          409.929443E-03            -3.82132006E+06           2.17804503E+06         504.218323E+06           249.005692E+06           439.993042E+06             1.45801795E-03          -1.14894259E-03          28.3145638E-06            2.15331483E-03         494.432983E-06           -34.7604675E-03           51.4399719E-06           35.2549019E-03         -494.432983E-06           -35.9094086E-03           79.7542801E-06           37.4082146E-03            0.                     249.800858E+06           788.379761E+12            28.0460472E-06           43.4019699E-03 
                  30.E+03                  25.7980366               26.0897522              291.714294E-03            40.8749237E-03          410.330688E-03            -3.87882018E+06           2.20252109E+06         508.179413E+06           250.985031E+06           443.473358E+06             1.4609375E-03           -1.15814078E-03          28.6328144E-06            2.17023826E-03         498.474243E-06           -36.0564995E-03           59.0214043E-06           36.554966E-03          -498.474243E-06           -37.2146339E-03           87.6530533E-06           38.7252121E-03            0.                     251.761902E+06           817.598389E+12            28.0269794E-06           43.3737335E-03 
                  31.E+03                  25.7855263               26.0875435              302.015717E-03            42.3383293E-03          410.616547E-03            -3.93618608E+06           2.22614503E+06         512.042358E+06           252.912704E+06           446.868622E+06             1.46341228E-03          -1.16711342E-03          28.9398746E-06            2.18674707E-03         502.404266E-06           -37.3547478E-03           66.7045898E-06           37.8571548E-03         -502.404266E-06           -38.5218697E-03           95.6449661E-06           40.0439072E-03            0.                     253.672958E+06           846.866638E+12            28.0133896E-06           43.3536224E-03 
                  32.E+03                  25.7675934               26.0798702              312.279694E-03            43.8059425E-03          411.026489E-03            -3.99375796E+06           2.24282598E+06         515.710388E+06           254.754044E+06           450.095123E+06             1.4676137E-03           -1.1756655E-03           29.1566677E-06            2.20241165E-03         506.195251E-06           -38.6567574E-03           74.2473602E-06           39.1629562E-03         -506.195251E-06           -39.8324203E-03          103.403114E-06            41.3653603E-03            0.                     255.490204E+06           876.219055E+12            27.9939022E-06           43.3247833E-03 
                  33.E+03                  25.7505436               26.0730858              322.544128E-03            45.2741241E-03          411.416168E-03            -4.05066586E+06           2.26851296E+06         519.418884E+06           256.592865E+06           453.356262E+06             1.4681735E-03           -1.18427086E-03          29.4906502E-06            2.21828079E-03         509.912262E-06           -39.9593086E-03           82.1657028E-06           40.4692154E-03         -509.912262E-06           -41.1435776E-03          111.656029E-06            42.6874924E-03            0.                     257.320312E+06           905.582458E+12            27.9753799E-06           43.2973595E-03 
                  34.E+03                  25.7356224               26.0684586              332.835968E-03            46.7445793E-03          411.757294E-03            -4.10704994E+06           2.28928494E+06         523.03241E+06            258.387817E+06           456.534698E+06             1.47044981E-03          -1.1926657E-03           29.7607479E-06            2.23374057E-03         513.551147E-06           -41.2638893E-03           90.1680908E-06           41.7774429E-03         -513.551147E-06           -42.4565582E-03          119.928734E-06            44.0111847E-03            0.                     259.104401E+06           934.991577E+12            27.9591694E-06           43.2733574E-03 
                  35.E+03                  25.7252102               26.0683975              343.187225E-03            48.217411E-03           411.9953E-03              -4.16350603E+06           2.30964208E+06         526.526611E+06           260.128571E+06           459.609772E+06             1.47284162E-03          -1.2008003E-03           30.0253448E-06            2.24868655E-03         517.098022E-06           -42.5706139E-03           98.2598877E-06           43.0877151E-03         -517.098022E-06           -43.7714157E-03          128.285965E-06            45.3363914E-03            0.                     260.830566E+06           964.448486E+12            27.9478626E-06           43.2566147E-03 
                  36.E+03                  25.7095013               26.0629883              353.490356E-03            49.6936188E-03          412.354309E-03            -4.22025394E+06           2.32276487E+06         529.85022E+06            261.793945E+06           462.537262E+06             1.47620749E-03          -1.2085675E-03           30.1959209E-06            2.26289129E-03         520.524719E-06           -43.8803406E-03          106.194756E-06            44.400856E-03          -520.524719E-06           -45.0889015E-03          136.387527E-06            46.6637459E-03            0.                     262.47467E+06            993.972473E+12            27.9307957E-06           43.2313309E-03 
                  37.E+03                  25.6945953               26.0583878              363.791199E-03            51.169754E-03           412.695038E-03            -4.27636623E+06           2.34561896E+06         533.228638E+06           263.464508E+06           465.51178E+06              1.47613907E-03          -1.21642137E-03          30.4930439E-06            2.27736068E-03         523.894531E-06           -45.1900368E-03          114.496796E-06            45.7139359E-03         -523.894531E-06           -46.4064636E-03          144.988541E-06            47.991291E-03             0.                     264.138916E+06             1.0234952E+15           27.9145985E-06           43.2073708E-03 
                  38.E+03                  25.6816807               26.0557938              374.119354E-03            52.6477661E-03          412.990295E-03            -4.33197212E+06           2.36326385E+06         536.526611E+06           265.098877E+06           468.41626E+06              1.47800469E-03          -1.22409821E-03          30.7224541E-06            2.29148364E-03         527.202332E-06           -46.5013962E-03          122.865204E-06            47.0286026E-03         -527.202332E-06           -47.725502E-03           153.588135E-06            49.3200874E-03            0.                     265.764526E+06             1.05305529E+15          27.9005642E-06           43.1865807E-03 
                  39.E+03                  25.6729507               26.057457               384.505737E-03            54.1274605E-03          413.189819E-03            -4.38744831E+06           2.38074899E+06         539.719788E+06           266.686218E+06           471.229736E+06             1.47970533E-03          -1.23154628E-03          30.9497261E-06            2.30515051E-03         530.432678E-06           -47.8142929E-03          131.329056E-06            48.3447304E-03         -530.432678E-06           -49.0458374E-03          162.281555E-06            50.6498718E-03            0.                     267.339508E+06             1.08264959E+15          27.8910885E-06           43.1725388E-03 
                  40.E+03                  25.6591358               26.0539665              394.83847E-03             55.6102715E-03          413.505615E-03            -4.44334602E+06           2.39096618E+06         542.758484E+06           268.20636E+06            473.90976E+06              1.48280227E-03          -1.23866439E-03          31.0824986E-06            2.31814837E-03         533.559143E-06           -49.1299362E-03          139.613632E-06            49.6634903E-03         -533.559143E-06           -50.3685951E-03          170.69606E-06             51.981636E-03             0.                     268.840515E+06             1.1123054E+15           27.8760738E-06           43.1503067E-03 
                  41.E+03                  25.6500931               26.0553131              405.223145E-03            57.0924339E-03          413.712189E-03            -4.49849796E+06           2.41141319E+06         545.860779E+06           269.736786E+06           476.644318E+06             1.48216522E-03          -1.24588871E-03          31.348362E-06             2.33144641E-03         536.640747E-06           -50.4450417E-03          148.271896E-06            50.9816856E-03         -536.640747E-06           -51.6909294E-03          179.619995E-06            53.3131294E-03            0.                     270.366333E+06             1.14194846E+15          27.8662472E-06           43.1357613E-03 
                  42.E+03                  25.6370163               26.0525799              415.565887E-03            58.5778503E-03          414.011169E-03            -4.55380154E+06           2.42101383E+06         548.7995E+06             271.201416E+06           479.237244E+06             1.48541737E-03          -1.25277007E-03          31.4731998E-06            2.34402537E-03         539.638611E-06           -51.7630196E-03          156.72879E-06             52.3026619E-03         -539.638611E-06           -53.015789E-03           188.202362E-06            54.6466866E-03            0.                     271.815613E+06             1.17165709E+15          27.8520451E-06           43.1147232E-03 
                  43.E+03                  25.6246376               26.0505371              425.902618E-03            60.0623627E-03          414.294067E-03            -4.60829592E+06           2.44030309E+06         551.781921E+06           272.671448E+06           481.867493E+06             1.48450255E-03          -1.25972152E-03          31.7239017E-06            2.35681438E-03         542.596558E-06           -53.0802269E-03          165.554932E-06            53.6228256E-03         -542.596558E-06           -54.3399544E-03          197.277878E-06            55.979641E-03             0.                     273.281677E+06             1.20134723E+15          27.8385925E-06           43.0948181E-03 
                  44.E+03                  25.6139297               26.05019                436.264404E-03            61.5481987E-03          414.538818E-03            -4.66255426E+06           2.45422602E+06         554.700073E+06           274.112976E+06           484.441681E+06             1.48584723E-03          -1.26653206E-03          31.9049873E-06            2.36932445E-03         545.508667E-06           -54.3986244E-03          174.405289E-06            54.9441261E-03         -545.508667E-06           -55.6651573E-03          206.307983E-06            57.3134499E-03            0.                     274.716827E+06             1.23106408E+15          27.8269615E-06           43.0775871E-03 
                  45.E+03                  25.6037216               26.050354               446.63382E-03             63.0351677E-03          414.772156E-03            -4.71668196E+06           2.46863198E+06         557.532166E+06           275.516815E+06           486.941376E+06             1.48696589E-03          -1.27315688E-03          32.0921974E-06            2.38146019E-03         548.360596E-06           -55.7180176E-03          183.340622E-06            56.2663765E-03         -548.360596E-06           -56.9911804E-03          215.430267E-06            58.6478424E-03            0.                     276.110779E+06             1.26080334E+15          27.815876E-06            43.061161E-03  
                  46.E+03                  25.5936432               26.0506516              457.006409E-03            64.5233536E-03          415.002472E-03            -4.77072239E+06           2.48138785E+06         560.3078E+06             276.891937E+06           489.392029E+06             1.48818564E-03          -1.27965343E-03          32.2579994E-06            2.39335704E-03         551.154297E-06           -57.0384941E-03          192.321381E-06            57.5896568E-03         -551.154297E-06           -58.3181458E-03          224.580521E-06            59.9830093E-03            0.                     277.476318E+06             1.29056716E+15          27.804924E-06            43.0449409E-03 
                  47.E+03                  25.5839653               26.0513515              467.381378E-03            66.0120392E-03          415.223602E-03            -4.82453203E+06           2.49408102E+06         563.036682E+06           278.24231E+06            491.801941E+06             1.48868215E-03          -1.28604126E-03          32.4231491E-06            2.40505624E-03         553.893677E-06           -58.3594284E-03          201.375214E-06            58.9133263E-03         -553.893677E-06           -59.6454773E-03          233.797821E-06            61.3183784E-03            0.                     278.818176E+06             1.32034075E+15          27.7944164E-06           43.0293694E-03 
                  48.E+03                  25.5747147               26.0524807              477.761536E-03            67.5015106E-03          415.43512E-03             -4.87812996E+06           2.50595498E+06         565.714294E+06           279.567017E+06           494.167297E+06             1.48945904E-03          -1.29231274E-03          32.577404E-06             2.416538E-03           556.580994E-06           -59.6810532E-03          210.485428E-06            60.2376289E-03         -556.580994E-06           -60.9733658E-03          243.062622E-06            62.6541672E-03            0.                     280.13443E+06              1.35013008E+15          27.7843647E-06           43.0144806E-03 
                  49.E+03                  25.569191                26.0573921              488.203217E-03            68.9916916E-03          415.561584E-03            -4.93144369E+06           2.51736593E+06         568.341492E+06           280.866486E+06           496.4888E+06               1.4901855E-03           -1.29846942E-03          32.7257729E-06            2.42780519E-03         559.217285E-06           -61.0033226E-03          219.650101E-06            61.5625458E-03         -559.217285E-06           -62.301796E-03           252.375839E-06            63.9903564E-03            0.                     281.425537E+06             1.37993371E+15          27.7783585E-06           43.0055695E-03 
                  50.E+03                  25.5590343               26.0576134              498.576965E-03            70.4841461E-03          415.793488E-03            -4.98509836E+06           2.52212405E+06         570.839722E+06           282.111572E+06           498.698761E+06             1.49246311E-03          -1.3043524E-03           32.78759E-06              2.43850875E-03         561.77594E-06            -62.3276062E-03          228.608963E-06            62.8893814E-03         -561.77594E-06            -63.6319504E-03          261.395233E-06            65.3278961E-03            0.                     282.655426E+06             1.40978277E+15          27.7673283E-06           42.9892387E-03 
                  51.E+03                  25.5493584               26.0583076              508.942719E-03            71.9754028E-03          416.014648E-03            -5.0379281E+06            2.53745604E+06         573.413147E+06           283.374542E+06           500.973236E+06             1.49124968E-03          -1.3103714E-03           32.9868927E-06            2.44956064E-03         564.310059E-06           -63.6508408E-03          237.916122E-06            64.2151413E-03         -564.310059E-06           -64.9612122E-03          270.903107E-06            66.6647034E-03            0.                     283.916565E+06             1.43960774E+15          27.756815E-06            42.973671E-03  
                  52.E+03                  25.544445                26.0638275              519.38916E-03             73.4669724E-03          416.127136E-03            -5.09029198E+06           2.54777813E+06         575.938538E+06           284.617157E+06           503.205719E+06             1.49157643E-03          -1.31628501E-03          33.1211357E-06            2.46040297E-03         566.813416E-06           -64.97435E-03            247.24379E-06             65.5411606E-03         -566.813416E-06           -66.2906418E-03          280.365356E-06            68.0015717E-03            0.                     285.155182E+06             1.46943927E+15          27.7514706E-06           42.9657555E-03 
                  53.E+03                  25.5384846               26.0683117              529.827942E-03            74.9606476E-03          416.263245E-03            -5.14303398E+06           2.55213308E+06         578.311951E+06           285.799286E+06           505.306793E+06             1.49367428E-03          -1.32188201E-03          33.1777115E-06            2.47057486E-03         569.243408E-06           -66.2997208E-03          256.367493E-06            66.8689651E-03         -569.243408E-06           -67.6216049E-03          289.546326E-06            69.3395386E-03            0.                     286.322754E+06             1.49931288E+15          27.7450047E-06           42.9561653E-03 
                  54.E+03                  25.5281715               26.0683517              540.181885E-03            76.4545135E-03          416.499023E-03            -5.19555807E+06           2.56035209E+06         580.676697E+06           286.968903E+06           507.400177E+06             1.4938761E-03           -1.32744598E-03          33.2845383E-06            2.48072338E-03         571.622742E-06           -67.625267E-03           265.570343E-06            68.1968918E-03         -571.622742E-06           -68.9527206E-03          298.853973E-06            70.6776123E-03            0.                     287.483307E+06             1.52919042E+15          27.7337933E-06           42.9395676E-03 
                  55.E+03                  25.5229073               26.0735168              550.612915E-03            77.9467773E-03          416.619415E-03            -5.24706221E+06           2.57495809E+06         583.116699E+06           288.160004E+06           509.558075E+06             1.49224925E-03          -1.33315027E-03          33.4744835E-06            2.4912138E-03          573.995728E-06           -68.9494019E-03          275.096863E-06            69.5233841E-03         -573.995728E-06           -70.2825546E-03          308.571411E-06            72.0146179E-03            0.                     288.676544E+06             1.5590353E+15           27.7280712E-06           42.9310799E-03 
                  56.E+03                  25.5143509               26.0753517              560.993225E-03            79.4414902E-03          416.814789E-03            -5.29897404E+06           2.579216E+06           585.399536E+06           289.292603E+06           511.579987E+06             1.49472547E-03          -1.3385334E-03           33.5298271E-06            2.50100756E-03         576.312073E-06           -70.2757034E-03          284.371429E-06            70.8520126E-03         -576.312073E-06           -71.6142426E-03          317.900452E-06            73.3530197E-03            0.                     289.797638E+06             1.58892989E+15          27.7187843E-06           42.9173317E-03 
                  57.E+03                  25.5093727               26.0808029              571.427368E-03            80.9346848E-03          416.92865E-03             -5.34992838E+06           2.59382582E+06         587.733643E+06           290.436584E+06           513.64563E+06              1.4931829E-03           -1.34400487E-03          33.719696E-06             2.51103806E-03         578.607483E-06           -71.6006699E-03          294.007843E-06            72.1792679E-03         -578.607483E-06           -72.9446564E-03          327.728699E-06            74.6903E-03               0.                     290.940155E+06             1.61879361E+15          27.713377E-06            42.9092979E-03 
                  58.E+03                  25.5039272               26.0857887              581.860352E-03            82.4295731E-03          417.053162E-03            -5.4015398E+06            2.59685016E+06         589.94751E+06            291.533691E+06           515.607544E+06             1.49487627E-03          -1.34922981E-03          33.7589722E-06            2.52053928E-03         580.849426E-06           -72.9270859E-03          303.376953E-06            73.5079346E-03         -580.849426E-06           -74.276329E-03           337.134583E-06            76.0284729E-03            0.                     292.02652E+06              1.64869094E+15          27.7074604E-06           42.9005394E-03 
                  59.E+03                  25.4980812               26.0903606              592.28009E-03             83.924263E-03           417.186859E-03            -5.45279598E+06           2.60403705E+06         592.144104E+06           292.617218E+06           517.55426E+06              1.49471736E-03          -1.35440576E-03          33.8524399E-06            2.52997327E-03         583.049377E-06           -74.2533951E-03          312.827515E-06            74.8364487E-03         -583.049377E-06           -75.6078033E-03          346.678772E-06            77.3664093E-03            0.                     293.102844E+06             1.67858505E+15          27.7010994E-06           42.8911133E-03 
                  60.E+03                  25.4922066               26.0949039              602.696045E-03            85.4191666E-03          417.321014E-03            -5.50376797E+06           2.61126399E+06         594.322571E+06           293.688995E+06           519.485046E+06             1.4949013E-03           -1.35953629E-03          33.9464035E-06            2.53933525E-03         585.216919E-06           -75.5798492E-03          322.318176E-06            76.1650772E-03         -585.216919E-06           -76.9393997E-03          356.266266E-06            78.7044144E-03            0.                     294.16922E+06              1.7084837E+15           27.6947212E-06           42.8816681E-03 
                  61.E+03                  25.4864731               26.0995827              613.109253E-03            86.9139252E-03          417.452271E-03            -5.5543499E+06            2.61847711E+06         596.474182E+06           294.746765E+06           521.392212E+06             1.49474251E-03          -1.3646028E-03           34.0402451E-06            2.54858184E-03         587.353943E-06           -76.9061737E-03          331.857239E-06            77.4935226E-03         -587.353943E-06           -78.2707748E-03          365.896606E-06            80.0421143E-03            0.                     295.222168E+06             1.73837841E+15          27.6884918E-06           42.8724289E-03 
                  62.E+03                  25.4808884               26.1044044              623.522156E-03            88.4087372E-03          417.579773E-03            -5.60467196E+06           2.62551403E+06         598.595581E+06           295.789551E+06           523.27301E+06              1.49482584E-03          -1.36960113E-03          34.1316757E-06            2.55770111E-03         589.461182E-06           -78.2325592E-03          341.437286E-06            78.8220215E-03         -589.461182E-06           -79.6021729E-03          375.568878E-06            81.3797302E-03            0.                     296.260193E+06             1.76827514E+15          27.6824245E-06           42.8634491E-03 
                  63.E+03                  25.4754524               26.1093826              633.936218E-03            89.9038849E-03          417.704041E-03            -5.65485191E+06           2.63238978E+06         600.687683E+06           296.817719E+06           525.128296E+06             1.49513984E-03          -1.37453222E-03          34.2210846E-06            2.56669378E-03         591.539429E-06           -79.5592346E-03          351.044342E-06            80.1507874E-03         -591.539429E-06           -80.9337616E-03          385.265808E-06            82.7174683E-03            0.                     297.283539E+06             1.7981776E+15           27.6765213E-06           42.8546944E-03 
                  64.E+03                  25.4701653               26.1145077              644.348022E-03            91.3988495E-03          417.824921E-03            -5.70477581E+06           2.63910699E+06         602.750549E+06           297.831451E+06           526.958069E+06             1.49496245E-03          -1.37939656E-03          34.3084259E-06            2.57556224E-03         593.588379E-06           -80.8857574E-03          360.689575E-06            81.4793396E-03         -593.588379E-06           -82.2651291E-03          394.999054E-06            84.0549011E-03            0.                     298.292297E+06             1.82807696E+15          27.6707764E-06           42.84618E-03   
                  65.E+03                  25.4650154               26.1197815              654.757385E-03            92.8935242E-03          417.942383E-03            -5.75445032E+06           2.64562702E+06         604.784729E+06           298.83078E+06            528.762817E+06             1.49467731E-03          -1.38419545E-03          34.393116E-06             2.58430934E-03         595.608459E-06           -82.211998E-03           370.382782E-06            82.8076019E-03         -595.608459E-06           -83.5961914E-03          404.775635E-06            85.3919067E-03            0.                     299.287018E+06             1.85797036E+15          27.6651917E-06           42.8378944E-03 
                  66.E+03                  25.4600258               26.1251945              665.163391E-03            94.3877869E-03          418.056549E-03            -5.80390835E+06           2.65194988E+06         606.790955E+06           299.816193E+06           530.54303E+06              1.49426937E-03          -1.38892996E-03          34.475235E-06             2.59293604E-03         597.60022E-06            -83.5378799E-03          380.109985E-06            84.1354904E-03         -597.60022E-06            -84.9268112E-03          414.585236E-06            86.7284317E-03            0.                     300.267731E+06             1.88785613E+15          27.6597691E-06           42.8298683E-03 
                  67.E+03                  25.455183                26.1307545              675.571106E-03            95.8823395E-03          418.167297E-03            -5.85328627E+06           2.65805197E+06         608.770386E+06           300.788086E+06           532.300049E+06             1.49454427E-03          -1.39360404E-03          34.5547447E-06            2.60144949E-03         599.565063E-06           -84.8640289E-03          389.859558E-06            85.4635849E-03         -599.565063E-06           -86.2576218E-03          424.411621E-06            88.0650406E-03            0.                     301.234985E+06             1.9177469E+15           27.654501E-06            42.8220634E-03 
                  68.E+03                  25.4504852               26.1364632              685.977234E-03            97.376709E-03           418.27475E-03             -5.90247011E+06           2.66392207E+06         610.723206E+06           301.746796E+06           534.033875E+06             1.49438393E-03          -1.39821696E-03          34.6309547E-06            2.60984898E-03         601.502808E-06           -86.1900024E-03          399.633331E-06            86.7915192E-03         -601.502808E-06           -87.5882187E-03          434.267334E-06            89.4013519E-03            0.                     302.189117E+06             1.94763446E+15          27.649395E-06            42.8144913E-03 
                  69.E+03                  25.4459229               26.1423073              696.38092E-03             98.8707428E-03          418.378998E-03            -5.95143604E+06           2.66954994E+06         612.649902E+06           302.692413E+06           535.744812E+06             1.49402308E-03          -1.4027704E-03           34.7041931E-06            2.61813807E-03         603.414124E-06           -87.5156708E-03          409.44342E-06             88.1190567E-03         -603.414124E-06           -88.9184341E-03          444.15097E-06             90.7372055E-03            0.                     303.130249E+06             1.9775151E+15           27.6444435E-06           42.8071518E-03 
                  70.E+03                  25.4414997               26.1482906              706.784302E-03           100.364716E-03           418.479919E-03            -6.00026226E+06           2.67494893E+06         614.551331E+06           303.625305E+06           537.433838E+06             1.4939841E-03           -1.40726638E-03          34.7742729E-06            2.62631941E-03         605.30011E-06            -88.8412857E-03          419.274902E-06            89.4465866E-03         -605.30011E-06            -90.2485504E-03          454.047668E-06            92.0729218E-03            0.                     304.058868E+06             2.00739479E+15          27.6396465E-06           42.8000298E-03 
                  71.E+03                  25.4372158               26.1544075              717.187988E-03           101.858749E-03           418.577911E-03            -6.04898405E+06           2.68009019E+06         616.428711E+06           304.546112E+06           539.101807E+06             1.49402535E-03          -1.41170692E-03          34.841156E-06             2.63439727E-03         607.161133E-06           -90.1669388E-03          429.114777E-06            90.7741013E-03         -607.161133E-06           -91.5786362E-03          463.956024E-06            93.4085236E-03            0.                     304.97522E+06              2.03727484E+15          27.6349888E-06           42.7931442E-03 
                  72.E+03                  25.4330673               26.160656               727.589966E-03           103.352493E-03           418.672729E-03            -6.09749413E+06           2.68498802E+06         618.281616E+06           305.454712E+06           540.748535E+06             1.49375176E-03          -1.4160918E-03           34.9048195E-06            2.64237213E-03         608.997192E-06           -91.4923553E-03          438.980743E-06            92.1013489E-03         -608.997192E-06           -92.9084473E-03          473.886719E-06            94.7437286E-03            0.                     305.879639E+06             2.06715035E+15          27.6304779E-06           42.7864609E-03 
                  73.E+03                  25.4290504               26.167038               737.988708E-03           104.845795E-03           418.764587E-03            -6.1457901E+06            2.68965507E+06         620.110779E+06           306.351288E+06           542.37439E+06              1.49328768E-03          -1.42042208E-03          34.9655609E-06            2.65024519E-03         610.809204E-06           -92.8173523E-03          448.874207E-06            93.4281616E-03         -610.809204E-06           -94.2377701E-03          483.839783E-06            96.0783997E-03            0.                     306.772186E+06             2.09701586E+15          27.6261139E-06           42.7799873E-03 
                  74.E+03                  25.4251595               26.173542               748.384827E-03           106.338615E-03           418.853546E-03            -6.19388628E+06           2.69412303E+06         621.91687E+06            307.236389E+06           543.980225E+06             1.4928143E-03           -1.42469931E-03          35.0235634E-06            2.65802002E-03         612.597717E-06           -94.1419373E-03          458.792786E-06            94.754509E-03          -612.597717E-06           -95.5666275E-03          493.817963E-06            97.412529E-03             0.                     307.653137E+06             2.12687206E+15          27.6218834E-06           42.7737198E-03 
                  75.E+03                  25.4213905               26.180172               758.777405E-03           107.830902E-03           418.939575E-03            -6.24179411E+06           2.69837308E+06         623.700073E+06           308.110107E+06           545.565979E+06             1.49230218E-03          -1.42892432E-03          35.0788765E-06            2.66569757E-03         614.362915E-06           -95.4660492E-03          468.729065E-06            96.0804062E-03         -614.362915E-06           -96.8949661E-03          503.804077E-06            98.746109E-03             0.                     308.522736E+06             2.15671802E+15          27.6177921E-06           42.7676544E-03 
                  76.E+03                  25.4177494               26.186924               769.171082E-03           109.323265E-03           419.022949E-03            -6.28964186E+06           2.70240498E+06         625.461609E+06           308.972809E+06           547.132996E+06             1.49236786E-03          -1.43309999E-03          35.1312485E-06            2.6732831E-03          616.106018E-06           -96.7902222E-03          478.665802E-06            97.406311E-03          -616.106018E-06           -98.2233124E-03          513.7995E-06             100.079597E-03             0.                     309.381561E+06             2.1865654E+15           27.6138382E-06           42.7617874E-03 
                  77.E+03                  25.4142227               26.1937885              779.5625E-03             110.815285E-03           419.103516E-03            -6.33731222E+06           2.7062242E+06          627.201721E+06           309.824768E+06           548.681274E+06             1.49201262E-03          -1.4372263E-03           35.1808548E-06            2.68077707E-03         617.827271E-06           -98.1140671E-03          488.618378E-06            98.7319031E-03         -617.827271E-06           -99.5512924E-03          523.805603E-06           101.412666E-03             0.                     310.229736E+06             2.21640587E+15          27.6100044E-06           42.7561035E-03 
                  78.E+03                  25.4108124               26.2007656              789.950989E-03           112.306778E-03           419.18158E-03             -6.38478231E+06           2.70984101E+06         628.920715E+06           310.666199E+06           550.210999E+06             1.49149334E-03          -1.44130409E-03          35.2280045E-06            2.68818116E-03         619.527039E-06           -99.4374542E-03          498.593323E-06           100.056961E-03          -619.527039E-06          -100.878746E-03           533.822876E-06           102.745163E-03             0.                     311.067322E+06             2.24623585E+15          27.6062984E-06           42.7506142E-03 
                  79.E+03                  25.4075146               26.2078476              800.336182E-03           113.797722E-03           419.256866E-03            -6.43205404E+06           2.71328807E+06         630.618896E+06           311.497223E+06           551.722595E+06             1.49093759E-03          -1.44533455E-03          35.2726898E-06            2.6954968E-03          621.205811E-06          -100.760361E-03           508.585449E-06           101.381554E-03          -621.205811E-06          -102.205681E-03           543.856079E-06           104.077057E-03             0.                     311.894653E+06             2.27605438E+15          27.6027164E-06           42.7453003E-03 
                  80.E+03                  25.4043274               26.2150459              810.721741E-03           115.28862E-03            419.329773E-03            -6.47927189E+06           2.71652818E+06         632.297363E+06           312.318207E+06           553.217041E+06             1.49089801E-03          -1.44931972E-03          35.3148499E-06            2.70272875E-03         622.864136E-06          -102.083221E-03           518.572021E-06           102.706062E-03          -622.864136E-06          -103.532524E-03           553.883118E-06           105.408806E-03             0.                     312.712128E+06             2.3058722E+15           27.5992527E-06           42.7401657E-03 
                  81.E+03                  25.4012413               26.2223492              821.106567E-03           116.779312E-03           419.400146E-03            -6.52638006E+06           2.71955299E+06         633.956299E+06           313.129608E+06           554.69458E+06              1.49068713E-03          -1.45326078E-03          35.3542404E-06            2.70987678E-03         624.502808E-06          -103.405861E-03           528.552979E-06           104.030373E-03          -624.502808E-06          -104.859131E-03           563.905579E-06           106.740234E-03             0.                     313.519745E+06             2.33568597E+15          27.5959034E-06           42.7352028E-03 
                  82.E+03                  25.3982639               26.2297516              831.488281E-03           118.269478E-03           419.468353E-03            -6.5733161E+06            2.72241902E+06         635.595886E+06           313.931091E+06           556.155151E+06             1.49017107E-03          -1.45715702E-03          35.3914642E-06            2.71694279E-03         626.121643E-06          -104.728065E-03           538.551697E-06           105.354187E-03          -626.121643E-06          -106.185211E-03           573.940125E-06           108.071136E-03             0.                     314.317871E+06             2.36548972E+15          27.5926647E-06           42.7304077E-03 
                  83.E+03                  25.3953857               26.2372513              841.866638E-03           119.759071E-03           419.534088E-03            -6.62006807E+06           2.72511196E+06         637.216675E+06           314.723236E+06           557.599304E+06             1.48958182E-03          -1.46101046E-03          35.4265213E-06            2.72392821E-03         627.721252E-06          -106.049744E-03           548.552246E-06           106.677475E-03          -627.721252E-06          -107.510735E-03           583.98114E-06            109.40139E-03              0.                     315.106659E+06             2.39528155E+15          27.5895367E-06           42.7257805E-03 
                  84.E+03                  25.3926105               26.2448502              852.241638E-03           121.248047E-03           419.597626E-03            -6.66662598E+06           2.72765803E+06         638.818909E+06           315.506073E+06           559.0271E+06               1.48898268E-03          -1.4648205E-03           35.459568E-06             2.73083496E-03         629.302002E-06          -107.37088E-03            558.56958E-06            108.000198E-03          -629.302002E-06          -108.835701E-03           594.030151E-06           110.731018E-03             0.                     315.886139E+06             2.42506075E+15          27.5865192E-06           42.721302E-03  
                  85.E+03                  25.3899269               26.2525444              862.612427E-03           122.73629E-03            419.658813E-03            -6.71299601E+06           2.73005581E+06         640.402649E+06           316.279694E+06           560.438843E+06             1.48823774E-03          -1.46858859E-03          35.4907646E-06            2.73766375E-03         630.864197E-06          -108.69136E-03            568.600342E-06           109.322235E-03          -630.864197E-06          -110.159966E-03           604.089355E-06           112.059891E-03             0.                     316.656494E+06             2.45482564E+15          27.5836105E-06           42.71698E-03   
                  86.E+03                  25.3873405               26.2603226              872.979187E-03           124.223839E-03           419.717957E-03            -6.75918198E+06           2.73231006E+06         641.968811E+06           317.044525E+06           561.835144E+06             1.4875685E-03           -1.47231603E-03          35.5200615E-06            2.74441576E-03         632.407959E-06          -110.011261E-03           578.64093E-06            110.643654E-03          -632.407959E-06          -111.483551E-03           614.158813E-06           113.388062E-03             0.                     317.41806E+06              2.4845767E+15           27.580801E-06            42.7128143E-03 
                  87.E+03                  25.3848515               26.2681961              883.346252E-03           125.711334E-03           419.774933E-03            -6.80533218E+06           2.73437595E+06         643.517944E+06           317.800781E+06           563.216614E+06             1.48748279E-03          -1.4760046E-03           35.5469246E-06            2.75109673E-03         633.934998E-06          -111.33107E-03            588.664795E-06           111.964981E-03          -633.934998E-06          -112.807068E-03           624.209656E-06           114.71608E-03              0.                     318.171021E+06             2.51432586E+15          27.5780907E-06           42.7088051E-03 
                  88.E+03                  25.3824368               26.2761555              893.710999E-03           127.198341E-03           419.829956E-03            -6.85135412E+06           2.73626804E+06         645.049988E+06           318.548462E+06           564.583313E+06             1.48701155E-03          -1.47965455E-03          35.5715141E-06            2.75770426E-03         635.444397E-06          -112.650436E-03           598.68396E-06            113.285873E-03          -635.444397E-06          -114.130096E-03           634.256714E-06           116.043594E-03             0.                     318.91571E+06              2.54406667E+15          27.5754757E-06           42.7049332E-03 
                  89.E+03                  25.3801193               26.2841949              904.072021E-03           128.684723E-03           419.882996E-03            -6.89722013E+06           2.73803186E+06         646.565613E+06           319.287903E+06           565.935547E+06             1.48638177E-03          -1.48326647E-03          35.5944214E-06            2.7642417E-03          636.936951E-06          -113.969261E-03           608.707764E-06           114.606178E-03          -636.936951E-06          -115.45253E-03            644.302917E-06           117.37043E-03              0.                     319.6521E+06               2.57379413E+15          27.5729542E-06           42.7011833E-03 
                  90.E+03                  25.3778839               26.2923145              914.429626E-03           130.170441E-03           419.934143E-03            -6.94293213E+06           2.73967004E+06         648.064758E+06           320.019104E+06           567.273438E+06             1.48570633E-03          -1.48684061E-03          35.6156693E-06            2.77070928E-03         638.413025E-06          -115.287491E-03           618.729736E-06           115.925896E-03          -638.413025E-06          -116.774338E-03           654.347229E-06           118.696602E-03             0.                     320.38028E+06              2.60350847E+15          27.5705242E-06           42.6975899E-03 
                  91.E+03                  25.3757305               26.3005142              924.783325E-03           131.655472E-03           419.983459E-03            -6.98849201E+06           2.7411809E+06          649.547852E+06           320.742401E+06           568.597229E+06             1.48504424E-03          -1.49037778E-03          35.6353416E-06            2.77710891E-03         639.872742E-06          -116.605118E-03           628.75354E-06            117.245003E-03          -639.872742E-06          -118.095505E-03           664.388794E-06           120.022102E-03             0.                     321.100555E+06             2.63320947E+15          27.568182E-06            42.6941223E-03 
                  92.E+03                  25.3736534               26.3087921              935.13562E-03            133.140167E-03           420.030823E-03            -7.03395987E+06           2.74251485E+06         651.015564E+06           321.457855E+06           569.907654E+06             1.4846853E-03           -1.49388015E-03          35.6527176E-06            2.78344202E-03         641.316772E-06          -117.922424E-03           638.767151E-06           118.563744E-03          -641.316772E-06          -119.416313E-03           674.420959E-06           121.347191E-03             0.                     321.813202E+06             2.66290307E+15          27.5659275E-06           42.690773E-03  
                  93.E+03                  25.3716602               26.3171425              945.487E-03              134.624588E-03           420.076508E-03            -7.07937574E+06           2.74368191E+06         652.468262E+06           322.16568E+06            571.205017E+06             1.48442483E-03          -1.49734771E-03          35.66782E-06              2.789711E-03           642.7453E-06            -119.23951E-03            648.763062E-06           119.882256E-03          -642.7453E-06            -120.736855E-03           684.427063E-06           122.671974E-03             0.                     322.518219E+06             2.69259095E+15          27.5637569E-06           42.6875572E-03 
                  94.E+03                  25.3697319               26.3255692              955.835327E-03           136.108429E-03           420.120514E-03            -7.12463999E+06           2.74470711E+06         653.905823E+06           322.866058E+06           572.489136E+06             1.48384511E-03          -1.50078142E-03          35.6812363E-06            2.79591751E-03         644.158691E-06          -120.556053E-03           658.748657E-06           121.200226E-03          -644.158691E-06          -122.056839E-03           694.43042E-06            123.996155E-03             0.                     323.215759E+06             2.72226882E+15          27.5616703E-06           42.6844482E-03 
                  95.E+03                  25.367878                26.3340569              966.179993E-03           137.591583E-03           420.162811E-03            -7.16975594E+06           2.74563122E+06         655.328735E+06           323.559082E+06           573.760498E+06             1.4831537E-03           -1.50418079E-03          35.6931686E-06            2.80205941E-03         645.55719E-06           -121.872025E-03           668.736145E-06           122.517586E-03          -645.55719E-06           -123.376198E-03           704.429077E-06           125.319633E-03             0.                     323.905975E+06             2.75193167E+15          27.5596581E-06           42.6814766E-03 
                  96.E+03                  25.3661003               26.3426189              976.520081E-03           139.073959E-03           420.203522E-03            -7.21470404E+06           2.74642897E+06         656.737122E+06           324.244873E+06           575.019043E+06             1.48236752E-03          -1.50754631E-03          35.7036324E-06            2.80813956E-03         646.940735E-06          -123.187256E-03           678.715271E-06           123.834206E-03          -646.940735E-06          -124.694817E-03           714.416626E-06           126.642349E-03             0.                     324.58905E+06              2.78157926E+15          27.5577259E-06           42.6786003E-03 
                  97.E+03                  25.3643951               26.3512478              986.856262E-03           140.555573E-03           420.242523E-03            -7.2594924E+06            2.74712801E+06         658.131042E+06           324.923401E+06           576.265015E+06             1.48162079E-03          -1.51087928E-03          35.7126389E-06            2.81415963E-03         648.309814E-06          -124.501846E-03           688.692566E-06           125.150162E-03          -648.309814E-06          -126.012741E-03           724.399475E-06           127.964317E-03             0.                     325.265045E+06             2.81121111E+15          27.5558624E-06           42.6758461E-03 
                  98.E+03                  25.3627529               26.3599434              997.1875E-03             142.036377E-03           420.279907E-03            -7.30412769E+06           2.7477119E+06          659.511108E+06           325.595001E+06           577.498779E+06             1.48079121E-03          -1.51417983E-03          35.7203102E-06            2.82011938E-03         649.664734E-06          -125.815689E-03           698.662354E-06           126.465363E-03          -649.664734E-06          -127.329887E-03           734.378601E-06           129.285477E-03             0.                     325.934052E+06             2.84082747E+15          27.5540829E-06           42.673214E-03  
                  99.E+03                  25.3611832               26.3686905                1.00751448             143.516357E-03           420.315948E-03            -7.34861183E+06           2.74820805E+06         660.877441E+06           326.259796E+06           578.72052E+06              1.47999668E-03          -1.51744854E-03          35.726696E-06             2.82602024E-03         651.005737E-06          -127.128838E-03           708.624695E-06           127.779869E-03          -651.005737E-06          -128.646301E-03           744.353027E-06           130.605881E-03             0.                     326.5961E+06               2.87042713E+15          27.5523815E-06           42.670681E-03  
                 100.E+03                  25.3596725               26.3775063                1.01783693             144.99559E-03            420.350433E-03            -7.39292574E+06           2.74860001E+06         662.230103E+06           326.917786E+06           579.930359E+06             1.47922432E-03          -1.52068627E-03          35.7318077E-06            2.83186364E-03         652.332886E-06          -128.441299E-03           718.588013E-06           129.093628E-03          -652.332886E-06          -129.961975E-03           754.319153E-06           131.925507E-03             0.                     327.251648E+06             2.9000113E+15           27.5507393E-06           42.668251E-03  




