
                     X                      Cbar_L                 Cbar_total               Cbar_trap                   PEEQ                  PSI_Cbar_L                  S_11                     S_12                     S_22                     S_33                   S_Mises                   dPEEQ                eps_elastic_11           eps_elastic_12           eps_elastic_22           eps_elastic_33           eps_plastic_11           eps_plastic_12           eps_plastic_22           eps_plastic_33            eps_total_11             eps_total_12             eps_total_22             eps_total_33          hydrostatic_stress             rho_d                   theta_L                 theta_trap      

                   0.                       0.                       0.                       0.                       0.                       0.                       0.                       0.                       0.                       0.                       0.                       0.                       0.                       0.                       0.                       0.                       0.                       0.                       0.                       0.                       0.                       0.                       0.                       0.                       0.                       0.                       0.                       0.            
                   1.E+03                  26.9999599               27.0002346              274.878815E-06            31.9531593E-06          382.858032E-03             2.68068743E+06        -112.925781E+03           119.366241E+06            37.4898911E+06          103.75695E+06             31.9531593E-06         -218.820663E-06            -1.46803272E-06         539.635437E-06             7.43916178E-06         -23.3534126E-06         -983.378601E-09            30.7925739E-06           -7.43916178E-06        -242.174057E-06            -2.45141482E-06         570.42804E-06              0.                      54.7089882E+06          739.063171E+09            29.3327427E-06           45.3026352E-03 
                   2.E+03                  26.9019203               26.9087944                6.87307405E-03         922.184998E-06           385.098846E-03             1.87971377E+06        -267.022827E+03           143.464569E+06            60.7277946E+06          123.197334E+06           890.231934E-06          -290.438965E-06            -3.47132659E-06         629.862793E-06            92.0735703E-06         -749.764221E-06            -2.11212516E-06         841.837952E-06           -92.0735703E-06           -1.04020333E-03          -5.58346081E-06           1.47170043E-03           0.                      70.3861847E+06           18.543705E+12            29.2262383E-06           45.145565E-03  
                   3.E+03                  26.8023376               26.8179207               15.5790138E-03            2.10407591E-03         387.374939E-03             2.01841855E+06        -130.82663E+03            162.44252E+06             75.6520538E+06          139.087189E+06             1.18189073E-03        -331.376678E-06            -1.70072687E-06         711.380066E-06           147.241943E-06            -1.74543178E-03          -3.4522891E-06            1.89267373E-03        -147.241943E-06            -2.07680917E-03          -5.15315676E-06           2.60405374E-03           0.                      84.6487045E+06           42.1815071E+12           29.1180553E-06           44.985981E-03  
                   4.E+03                  26.7259293               26.7525253               26.5970879E-03            3.60552239E-03         389.121552E-03             1.98134947E+06        -165.423004E+03           177.86557E+06             86.2609177E+06          152.364502E+06             1.50144637E-03        -365.463013E-06            -2.15051293E-06         777.784119E-06           182.354279E-06            -3.02927637E-03          -5.39404202E-06           3.2116313E-03         -182.354279E-06            -3.39473939E-03          -7.54452038E-06           3.98941517E-03           0.                      91.2759705E+06           72.210434E+12            29.0350323E-06           44.8634796E-03 
                   5.E+03                  26.653717                26.6937981               40.0879288E-03            5.45096731E-03         390.772095E-03             1.98987257E+06         -69.2819977E+03          191.480576E+06            94.3360062E+06          164.121338E+06             1.84544432E-03        -392.141235E-06          -900.683533E-09           839.548401E-06           208.108658E-06            -4.61624336E-03          -3.38472438E-06           4.82435322E-03        -208.108658E-06            -5.00838375E-03          -4.28521919E-06           5.66390133E-03           0.                      98.8427124E+06          109.119331E+12            28.9565945E-06           44.7476654E-03 
                   6.E+03                  26.5991287               26.6527233               53.5915985E-03            7.30310535E-03         392.019775E-03             2.04764414E+06         -50.3525009E+03          202.099152E+06           100.153915E+06           173.260345E+06             1.85213637E-03        -410.236328E-06          -654.539734E-09           890.098633E-06           227.454346E-06            -6.21231747E-03        -608.517456E-09             6.43977118E-03        -227.454346E-06            -6.62255383E-03          -1.26326632E-06           7.32987022E-03           0.                     104.568977E+06           146.162094E+12            28.8972874E-06           44.6601143E-03 
                   7.E+03                  26.5551949               26.6205711               65.3770599E-03            8.92431641E-03         393.024078E-03             2.09555769E+06         -48.7438736E+03          209.846497E+06           104.268631E+06           179.925659E+06             1.62121403E-03        -422.261292E-06          -633.675903E-09           928.119568E-06           241.863556E-06            -7.61055803E-03           1.51699352E-06           7.85242128E-03        -241.863556E-06            -8.03281784E-03         882.806458E-09             8.78053856E-03           0.                     108.167786E+06           178.586349E+12            28.8495522E-06           44.5896339E-03 
                   8.E+03                  26.5091324               26.5855408               76.4179688E-03           10.4496126E-03          394.076996E-03             2.13230395E+06         -46.4977493E+03          216.213028E+06           107.599281E+06           185.406036E+06             1.5252955E-03         -431.556885E-06          -604.477478E-09           959.967712E-06           253.978378E-06            -8.92676067E-03           3.42160654E-06           9.1807394E-03         -253.978378E-06            -9.35831833E-03           2.81652308E-06          10.1407099E-03            0.                     111.181427E+06           209.092239E+12            28.7994995E-06           44.5157166E-03 
                   9.E+03                  26.470293                26.5574341               87.1450043E-03           11.9338551E-03          394.96463E-03              2.16443515E+06         -47.2630005E+03          221.759384E+06           110.473602E+06           190.180649E+06             1.48424184E-03        -439.195831E-06          -614.436462E-09           988.171082E-06           264.813629E-06           -10.2080154E-03            5.18222809E-06          10.4728289E-03         -264.813629E-06           -10.647212E-03             4.5680933E-06           11.4610004E-03            0.                     113.881538E+06           238.7771E+12              28.7573166E-06           44.4534073E-03 
                  10.E+03                  26.4348545               26.5325928               97.7385941E-03           13.4023075E-03          395.774597E-03             2.19425941E+06         -53.6436234E+03          226.747787E+06           113.045792E+06           194.474274E+06             1.4684515E-03         -445.713593E-06          -697.336853E-09             1.01388454E-03         274.821503E-06           -11.4760065E-03            6.73090124E-06          11.7508278E-03         -274.821503E-06           -11.9217186E-03            6.03334045E-06          12.7647095E-03            0.                     116.333015E+06           268.146149E+12            28.7188168E-06           44.396534E-03  
                  11.E+03                  26.4015312               26.5098152              108.286629E-03            14.867136E-03           396.536407E-03             2.22219372E+06         -63.5256233E+03          231.32016E+06            115.39592E+06            198.409454E+06             1.46483314E-03        -451.392487E-06          -825.832153E-09             1.03774428E-03         284.236847E-06           -12.7411613E-03            8.01583576E-06          13.0253963E-03         -284.236847E-06           -13.1925545E-03            7.18966484E-06          14.0631447E-03            0.                     118.595314E+06           297.44278E+12             28.6826134E-06           44.3430481E-03 
                  12.E+03                  26.3700199               26.4888477              118.832275E-03            16.3341103E-03          397.256592E-03             2.24863219E+06         -74.6402512E+03          235.562256E+06           117.569603E+06           202.059982E+06             1.4669714E-03         -456.377228E-06          -970.312683E-09             1.06016135E-03         293.208984E-06           -14.0084009E-03            9.0224781E-06           14.3016129E-03         -293.208984E-06           -14.4647799E-03            8.05195332E-06          15.3617687E-03            0.                     120.713486E+06           326.782227E+12            28.6483803E-06           44.2924652E-03 
                  13.E+03                  26.3402576               26.4696598              129.397995E-03            17.8060627E-03          397.93689E-03              2.2733469E+06          -85.6642532E+03          239.531082E+06           119.598213E+06           205.475403E+06             1.47195697E-03        -460.778046E-06            -1.11361253E-06           1.08139718E-03         301.833588E-06           -15.280139E-03             9.75880623E-06          15.581974E-03          -301.833588E-06           -15.7409182E-03            8.64552498E-06          16.6633701E-03            0.                     122.703468E+06           356.221375E+12            28.6160507E-06           44.2446861E-03 
                  14.E+03                  26.3121033               26.4520855              139.991608E-03            19.2839394E-03          398.580505E-03             2.29613256E+06         -96.15625E+03            243.266281E+06           121.504089E+06           208.690247E+06             1.4778707E-03         -464.68222E-06             -1.25001502E-06           1.10162425E-03         310.169556E-06           -16.5571556E-03           10.2356434E-06           16.8673229E-03         -310.169556E-06           -17.0218391E-03            8.98580837E-06          17.9689445E-03            0.                     124.577332E+06           385.778717E+12            28.5854588E-06           44.1994705E-03 
                  15.E+03                  26.2853775               26.4360008              150.616592E-03            20.7680607E-03          399.191132E-03             2.31697607E+06        -106.05275E+03            246.798447E+06           123.304039E+06           211.730957E+06             1.48412228E-03        -468.159607E-06            -1.37867212E-06           1.12096989E-03         318.25647E-06            -17.839716E-03            10.4670763E-06           18.1579666E-03         -318.25647E-06            -18.3078709E-03            9.08825397E-06          19.2789383E-03            0.                     126.348015E+06           415.461273E+12            28.5564384E-06           44.1565819E-03 
                  16.E+03                  26.2599697               26.421236               161.272232E-03            22.2582569E-03          399.772095E-03             2.33590221E+06        -114.960129E+03           250.151138E+06           125.01075E+06            214.61792E+06              1.49019575E-03        -471.263306E-06            -1.49448526E-06           1.13953567E-03         326.123199E-06           -19.1276493E-03           10.4729261E-06           19.4537754E-03         -326.123199E-06           -19.5989132E-03            8.97856045E-06          20.5933094E-03            0.                     128.027985E+06           445.265137E+12            28.52882E-06             44.1157761E-03 
                  17.E+03                  26.2411346               26.4131241              171.989731E-03            23.7540627E-03          400.202515E-03             2.35293698E+06        -123.018875E+03           253.343414E+06           126.634506E+06           217.36763E+06              1.49581146E-03        -474.041046E-06            -1.59922993E-06           1.15739703E-03         333.789185E-06           -20.4205551E-03           10.2729244E-06           20.7543392E-03         -333.789185E-06           -20.894598E-03             8.67340755E-06          21.9117393E-03            0.                     129.624176E+06           475.181244E+12            28.5083694E-06           44.0855255E-03 
                  18.E+03                  26.2210197               26.403738               182.721497E-03            25.2550907E-03          400.662354E-03             2.36829543E+06        -130.269745E+03           256.391418E+06           128.183884E+06           219.993866E+06             1.5010221E-03         -476.531036E-06            -1.69356096E-06           1.17461967E-03         341.270416E-06           -21.7180653E-03            9.88121605E-06          22.0593319E-03         -341.270416E-06           -22.194603E-03             8.18798447E-06          23.2339592E-03            0.                     131.145905E+06           505.201782E+12            28.4865017E-06           44.0532112E-03 
                  19.E+03                  26.2007809               26.3942509              193.470245E-03            26.7607746E-03          401.124878E-03             2.38213491E+06        -136.876755E+03           259.308655E+06           129.665787E+06           222.508118E+06             1.50568759E-03        -478.763672E-06            -1.77935004E-06           1.19125831E-03         348.580231E-06           -23.0197144E-03            9.31273079E-06          23.3682957E-03         -348.580231E-06           -23.4984818E-03            7.53276968E-06          24.5595551E-03            0.                     132.600632E+06           535.315613E+12            28.4645233E-06           44.0207214E-03 
                  20.E+03                  26.1809025               26.3851433              204.236115E-03            28.2706909E-03          401.579224E-03             2.39457679E+06        -142.903E+03              262.106537E+06           131.086319E+06           224.920303E+06             1.50991905E-03        -480.765808E-06            -1.8577702E-06            1.2073617E-03          355.730408E-06           -24.3251095E-03            8.57882023E-06          24.6808453E-03         -355.730408E-06           -24.8058815E-03            6.72112226E-06          25.8882008E-03            0.                     133.99408E+06            565.513733E+12            28.4429302E-06           43.9887924E-03 
                  21.E+03                  26.1615677               26.3765831              215.018127E-03            29.7844448E-03          402.021179E-03             2.40573502E+06        -148.434128E+03           264.795319E+06           132.450714E+06           227.23909E+06              1.51374638E-03        -482.561859E-06            -1.92963314E-06           1.2229706E-03          362.730774E-06           -25.633894E-03             7.69033813E-06          25.9966297E-03         -362.730774E-06           -26.1164589E-03            5.76005554E-06          27.2196007E-03            0.                     135.331314E+06           595.788818E+12            28.4219189E-06           43.9577179E-03 
                  22.E+03                  26.1428261               26.3686409              225.813538E-03            31.3015213E-03          402.449615E-03             2.41578913E+06        -153.550629E+03           267.383545E+06           133.763306E+06           229.471771E+06             1.51708198E-03        -484.168304E-06            -1.99614072E-06           1.23812258E-03         369.59079E-06            -26.9456444E-03            6.65540552E-06          27.3152351E-03         -369.59079E-06            -27.4298172E-03            4.65946484E-06          28.55336E-03              0.                     136.618179E+06           626.130554E+12            28.4015503E-06           43.9276161E-03 
                  23.E+03                  26.1247025               26.3613281              236.621124E-03            32.8216248E-03          402.863861E-03             2.42480397E+06        -158.277878E+03           269.879181E+06           135.028229E+06           231.625183E+06             1.52009737E-03        -485.603241E-06            -2.05760264E-06           1.25285029E-03         376.319275E-06           -28.2600746E-03            5.48386002E-06          28.6363964E-03         -376.319275E-06           -28.7456818E-03            3.42610288E-06          29.8892441E-03            0.                     137.857758E+06           656.532288E+12            28.3818665E-06           43.8985023E-03 
                  24.E+03                  26.1071854               26.3546295              247.438507E-03            34.3443222E-03          403.26416E-03              2.43289042E+06        -162.721619E+03           272.288696E+06           136.248901E+06           233.704788E+06             1.52270246E-03        -486.880737E-06            -2.11543369E-06           1.26718199E-03         382.923523E-06           -29.5768204E-03            4.17861176E-06          29.9597511E-03         -382.923523E-06           -30.0637035E-03            2.06142426E-06          31.2269249E-03            0.                     139.053864E+06           686.986389E+12            28.3628445E-06           43.8703613E-03 
                  25.E+03                  26.0902634               26.3485279              258.264496E-03            35.8694077E-03          403.650909E-03             2.44010687E+06        -166.877502E+03           274.618439E+06           137.428604E+06           235.716095E+06             1.52508545E-03        -488.014496E-06            -2.16939235E-06           1.28114474E-03         389.411011E-06           -30.8957005E-03            2.74844933E-06          31.2851105E-03         -389.411011E-06           -31.3837128E-03          578.584106E-09            32.5662651E-03            0.                     140.209564E+06           717.48822E+12             28.3444557E-06           43.8431816E-03 
                  26.E+03                  26.0739155               26.3430157              269.096954E-03            37.3965111E-03          404.024628E-03             2.44651532E+06        -170.804504E+03           276.873718E+06           138.570145E+06           237.663605E+06             1.52710712E-03        -489.016724E-06            -2.22048759E-06           1.29475987E-03         395.787018E-06           -32.2163811E-03            1.19488692E-06          32.6121712E-03         -395.787018E-06           -32.7053986E-03           -1.02655029E-06          33.9069366E-03            0.                     141.327301E+06           748.030396E+12            28.3266964E-06           43.8168945E-03 
                  27.E+03                  26.0581017               26.338047               279.934845E-03            38.9254227E-03          404.386047E-03             2.45222616E+06        -174.610504E+03           279.059418E+06           139.675934E+06           239.551453E+06             1.5289042E-03         -489.896576E-06            -2.26990414E-06           1.30804992E-03         402.057648E-06           -33.5386887E-03         -477.652069E-09            33.9407425E-03         -402.057648E-06           -34.0285835E-03           -2.74705243E-06          35.2487869E-03            0.                     142.410202E+06           778.608398E+12            28.309515E-06            43.7914886E-03 
                  28.E+03                  26.0428123               26.3335972              290.77774E-03             40.4560394E-03          404.735504E-03             2.45730114E+06        -178.322754E+03           281.180145E+06           140.748474E+06           241.383636E+06             1.53061366E-03        -490.663605E-06            -2.31816387E-06           1.32103539E-03         408.228943E-06           -34.8624992E-03           -2.26765394E-06          35.2707367E-03         -408.228943E-06           -35.3531761E-03           -4.58344603E-06          36.591774E-03             0.                     143.4608E+06             809.220886E+12            28.2929115E-06           43.766922E-03  
                  29.E+03                  26.0280209               26.3296432              301.62381E-03             41.9880371E-03          405.073547E-03             2.46177006E+06        -181.91275E+03            283.239899E+06           141.789703E+06           243.163513E+06             1.53200161E-03        -491.326202E-06            -2.36486077E-06           1.33373201E-03         414.30542E-06            -36.1875763E-03           -4.17331457E-06          36.6018906E-03         -414.30542E-06            -36.6789055E-03           -6.5368948E-06           37.9356232E-03            0.                     144.480408E+06           839.860535E+12            28.2768421E-06           43.7431564E-03 
                  30.E+03                  26.0137177               26.3261833              312.471375E-03            43.5211678E-03          405.400757E-03             2.46564746E+06        -185.360382E+03           285.242065E+06           142.801407E+06           244.894012E+06             1.53312504E-03        -491.89209E-06             -2.40964437E-06           1.34615481E-03         420.29068E-06            -37.5136757E-03           -6.18898773E-06          37.9339676E-03         -420.29068E-06            -38.0055695E-03           -8.59948349E-06          39.2801323E-03            0.                     145.47084E+06            870.523315E+12            28.2612839E-06           43.7201462E-03 
                  31.E+03                  25.9998512               26.3231697              323.32135E-03             45.0554695E-03          405.717651E-03             2.46901298E+06        -188.775497E+03           287.190277E+06           143.785614E+06           246.578262E+06             1.53431356E-03        -492.368011E-06            -2.45417333E-06           1.35831976E-03         426.190033E-06           -38.8408508E-03           -8.31671047E-06          39.2670288E-03         -426.190033E-06           -39.3332176E-03          -10.7721424E-06           40.6253548E-03            0.                     146.434525E+06           901.209595E+12            28.246233E-06            43.6978683E-03 
                  32.E+03                  25.9864216               26.320591               334.170685E-03            46.5905228E-03          406.024597E-03             2.47185898E+06        -192.068253E+03           289.087128E+06           144.743576E+06           248.218506E+06             1.53505766E-03        -492.760742E-06            -2.49685955E-06           1.37023842E-03         432.005463E-06           -40.1686935E-03          -10.5575895E-06           40.600708E-03          -432.005463E-06           -40.6614609E-03          -13.0538826E-06           41.9709435E-03            0.                     147.37178E+06            931.910767E+12            28.231636E-06            43.6762733E-03 
                  33.E+03                  25.9734077               26.3184261              345.020538E-03            48.1264305E-03          406.321991E-03             2.47427583E+06        -195.413879E+03           290.935852E+06           145.67691E+06            249.817398E+06             1.53589666E-03        -493.075806E-06            -2.54036236E-06           1.38192463E-03         437.741394E-06           -41.4973183E-03          -12.906909E-06            41.9350624E-03         -437.741394E-06           -41.9903908E-03          -15.445694E-06            43.3169823E-03            0.                     148.285309E+06           962.628601E+12            28.2175026E-06           43.655365E-03  
                  34.E+03                  25.9607925               26.3166618              355.868561E-03            49.662838E-03           406.610474E-03             2.47623205E+06        -198.654129E+03           292.738617E+06           146.586853E+06           251.376907E+06             1.53641164E-03        -493.319427E-06            -2.58251023E-06           1.39338601E-03         443.399872E-06           -42.8264236E-03          -15.3653679E-06           43.269825E-03          -443.399872E-06           -43.3197556E-03          -17.9465866E-06           44.663208E-03             0.                     149.17514E+06            993.356873E+12            28.2037945E-06           43.6350746E-03 
                  35.E+03                  25.9485531               26.3152695              366.716095E-03            51.1998901E-03          406.890228E-03             2.47777581E+06        -201.895493E+03           294.498138E+06           147.474731E+06           252.899292E+06             1.53704751E-03        -493.496124E-06            -2.6246326E-06            1.40463579E-03         448.984375E-06           -44.1561165E-03          -17.9316845E-06           44.6051102E-03         -448.984375E-06           -44.6496201E-03          -20.5576649E-06           46.0097427E-03            0.                     150.043518E+06             1.02409768E+15          28.1904945E-06           43.6154022E-03 
                  36.E+03                  25.9366684               26.3142262              377.560303E-03            52.7371674E-03          407.161743E-03             2.47887993E+06        -204.988007E+03           296.216125E+06           148.341599E+06           254.386154E+06             1.53728044E-03        -493.611664E-06            -2.66486859E-06           1.41568041E-03         454.49585E-06            -45.4860535E-03          -20.6065578E-06           45.9405403E-03         -454.49585E-06            -45.9796638E-03          -23.2705498E-06           47.3562317E-03            0.                     150.890167E+06             1.05484343E+15          28.1775913E-06           43.5963097E-03 
                  37.E+03                  25.9251442               26.313549               388.40271E-03             54.2748108E-03          407.42511E-03              2.4796598E+06         -208.204254E+03           297.894928E+06           149.188461E+06           255.83934E+06              1.53765249E-03        -493.669647E-06            -2.70661426E-06           1.42652988E-03         459.937592E-06           -46.8163376E-03          -23.3918533E-06           47.2762718E-03         -459.937592E-06           -47.3100166E-03          -26.095892E-06            48.7028008E-03            0.                     151.717728E+06             1.08559644E+15          28.1650677E-06           43.577774E-03  
                  38.E+03                  25.9139462               26.3131905              399.240936E-03            55.812561E-03           407.681152E-03             2.48005486E+06        -211.318756E+03           299.536194E+06           150.016312E+06           257.260345E+06             1.53773797E-03        -493.675171E-06            -2.74712682E-06           1.43719053E-03         465.310608E-06           -48.1467209E-03          -26.2804108E-06           48.6120529E-03         -465.310608E-06           -48.6404037E-03          -29.0283928E-06           50.0492249E-03            0.                     152.525742E+06             1.11635149E+15          28.1529064E-06           43.5597687E-03 
                  39.E+03                  25.9030704               26.3131485              410.076965E-03            57.3505325E-03          407.929626E-03             2.48014212E+06        -214.510757E+03           301.142151E+06           150.826126E+06           258.651031E+06             1.53797674E-03        -493.630829E-06            -2.7886126E-06            1.44767177E-03         470.617798E-06           -49.4773521E-03          -29.2783375E-06           49.9479828E-03         -470.617798E-06           -49.970993E-03           -32.0678787E-06           51.3956604E-03            0.                     153.316422E+06             1.1471107E+15           28.1410904E-06           43.542305E-03  
                  40.E+03                  25.8925056               26.3134136              420.908936E-03            58.8885231E-03          408.171234E-03             2.47991991E+06        -217.699493E+03           302.713745E+06           151.618591E+06           260.012238E+06             1.53798294E-03        -493.540619E-06            -2.83009839E-06           1.45797932E-03         475.860443E-06           -50.808033E-03           -32.3880234E-06           51.2838898E-03         -475.860443E-06           -51.3015709E-03          -35.2156334E-06           52.7418633E-03            0.                     154.089447E+06             1.17787063E+15          28.1296024E-06           43.5252991E-03 
                  41.E+03                  25.8822365               26.3139648              431.735748E-03            60.4263535E-03          408.406067E-03             2.47934103E+06        -220.761505E+03           304.252808E+06           152.39444E+06            261.345551E+06             1.53782129E-03        -493.409088E-06            -2.86992693E-06           1.46811831E-03         481.039215E-06           -52.1385956E-03          -35.6006203E-06           52.6196289E-03         -481.039215E-06           -52.6320038E-03          -38.4711876E-06           54.0877609E-03            0.                     154.845581E+06             1.20862675E+15          28.1184483E-06           43.5087738E-03 
                  42.E+03                  25.8722477               26.3148079              442.55835E-03             61.9640465E-03          408.634186E-03             2.47848201E+06        -223.844498E+03           305.76059E+06            153.15451E+06            262.6521E+06               1.53771579E-03        -493.23822E-06             -2.91000843E-06           1.47809541E-03         486.156128E-06           -53.4690933E-03          -38.9202003E-06           53.9552574E-03         -486.156128E-06           -53.9623222E-03          -41.8326836E-06           55.4333458E-03            0.                     155.58638E+06              1.23938119E+15          28.1076088E-06           43.4927368E-03 
                  43.E+03                  25.862545                26.315918               453.376129E-03            63.5016022E-03          408.856079E-03             2.47734904E+06        -226.928757E+03           307.238586E+06           153.89946E+06            263.933014E+06             1.53755057E-03        -493.031006E-06            -2.95002961E-06           1.48791695E-03         491.212708E-06           -54.7994766E-03          -42.3492165E-06           55.2906952E-03         -491.212708E-06           -55.2925148E-03          -45.2985992E-06           56.7786064E-03            0.                     156.312088E+06             1.27013206E+15          28.0970592E-06           43.4771233E-03 
                  44.E+03                  25.8531017               26.3172817              464.187195E-03            65.0386963E-03          409.07196E-03              2.47589397E+06        -229.860992E+03           308.687653E+06           154.629807E+06           265.189148E+06             1.53708422E-03        -492.79184E-06             -2.98823404E-06           1.49758518E-03         496.208832E-06           -56.1294861E-03          -45.8807907E-06           56.6256905E-03         -496.208832E-06           -56.6222801E-03          -48.8687096E-06           58.1232758E-03            0.                     157.022369E+06             1.30087376E+15          28.0867996E-06           43.4619331E-03 
                  45.E+03                  25.8439198               26.3189163              474.995331E-03            66.5757675E-03          409.281769E-03             2.47432113E+06        -233.113754E+03           310.10968E+06            155.346268E+06           266.422028E+06             1.53707731E-03        -492.519165E-06            -3.03043437E-06           1.50711071E-03         501.14859E-06            -57.4595108E-03          -49.5192375E-06           57.960659E-03          -501.14859E-06            -57.9520378E-03          -52.5509224E-06           59.4677773E-03            0.                     157.720764E+06             1.33161533E+15          28.0768242E-06           43.4471664E-03 
                  46.E+03                  25.8349762               26.320776               485.796967E-03            68.1123886E-03          409.486237E-03             2.47244692E+06        -236.214249E+03           311.505127E+06           156.049408E+06           267.632111E+06             1.53662229E-03        -492.219055E-06            -3.07081246E-06           1.51649308E-03         506.031158E-06           -58.7891731E-03          -53.2697868E-06           59.2952271E-03         -506.031158E-06           -59.281395E-03           -56.3394279E-06           60.8117027E-03            0.                     158.404312E+06             1.36234748E+15          28.0671043E-06           43.4327927E-03 
                  47.E+03                  25.8262749               26.3228683              496.591034E-03            69.6483383E-03          409.684998E-03             2.47028804E+06        -239.195251E+03           312.874878E+06           156.739548E+06           268.82019E+06              1.53595483E-03        -491.893738E-06            -3.10953522E-06           1.52573645E-03         510.856689E-06           -60.1182861E-03          -57.123951E-06            60.6291351E-03         -510.856689E-06           -60.6101875E-03          -60.2345695E-06           62.1548805E-03            0.                     159.074631E+06             1.39306688E+15          28.0576611E-06           43.4188042E-03 
                  48.E+03                  25.8178177               26.3251953              507.378754E-03            71.1837692E-03          409.878387E-03             2.46793795E+06        -242.233246E+03           314.220184E+06           157.417343E+06           269.987274E+06             1.53541911E-03        -491.543549E-06            -3.14906883E-06           1.53484619E-03         515.627197E-06           -61.4469681E-03          -61.0821877E-06           61.9625931E-03         -515.627197E-06           -61.9385147E-03          -64.2298203E-06           63.497448E-03             0.                     159.733353E+06             1.42377532E+15          28.0484657E-06           43.4051933E-03 
                  49.E+03                  25.8095894               26.3277378              518.160095E-03            72.7186661E-03          410.06665E-03              2.46538496E+06        -245.264755E+03           315.54187E+06            158.083099E+06           271.134125E+06             1.53488708E-03        -491.171021E-06            -3.18835187E-06           1.5438267E-03          520.343872E-06           -62.7752151E-03          -65.1467133E-06           63.295536E-03          -520.343872E-06           -63.2663727E-03          -68.3322983E-06           64.8393631E-03            0.                     160.380066E+06             1.45447302E+15          28.0395184E-06           43.3919525E-03 
                  50.E+03                  25.8015614               26.3304958              528.934448E-03            74.2529221E-03          410.249786E-03             2.46261406E+06        -248.255753E+03           316.841034E+06           158.737381E+06           272.261566E+06             1.53427184E-03        -490.778717E-06            -3.22733474E-06           1.55268025E-03         525.007385E-06           -64.1029205E-03          -69.3150787E-06           64.6279297E-03         -525.007385E-06           -64.5937195E-03          -72.540596E-06            66.1806259E-03            0.                     161.015152E+06             1.48515844E+15          28.0308094E-06           43.3790436E-03 
                  51.E+03                  25.7937546               26.333456               539.7005E-03              75.7863007E-03          410.428406E-03             2.45957589E+06        -251.092255E+03           318.117798E+06           159.380615E+06           273.369904E+06             1.53339589E-03        -490.369263E-06            -3.26415634E-06           1.56140959E-03         529.617126E-06           -65.429924E-03           -73.5885696E-06           65.9595413E-03         -529.617126E-06           -65.920311E-03           -76.8550644E-06           67.5209503E-03            0.                     161.638275E+06             1.51582658E+15          28.0223293E-06           43.3664894E-03 
                  52.E+03                  25.7861576               26.3366127              550.461426E-03            77.3192749E-03          410.602081E-03             2.45646191E+06        -254.16925E+03            319.373779E+06           160.013031E+06           274.460266E+06             1.5329473E-03         -489.941162E-06            -3.30427051E-06           1.57002127E-03         534.176453E-06           -66.7565689E-03          -77.9695129E-06           67.290741E-03          -534.176453E-06           -67.2465057E-03          -81.2729187E-06           68.8607635E-03            0.                     162.252563E+06             1.5464853E+15           28.0140667E-06           43.3542671E-03 
                  53.E+03                  25.7787399               26.339962               561.21521E-03             78.8515396E-03          410.771454E-03             2.45320892E+06        -257.299011E+03           320.609344E+06           160.635147E+06           275.533112E+06             1.53227758E-03        -489.496735E-06            -3.34485793E-06           1.57851863E-03         538.685913E-06           -68.082634E-03           -82.4576721E-06           68.6213226E-03         -538.685913E-06           -68.5721283E-03          -85.8008881E-06           70.1998444E-03            0.                     162.856216E+06             1.57713103E+15          28.0060234E-06           43.3423538E-03 
                  54.E+03                  25.7715263               26.3434887              571.960022E-03            80.3828354E-03          410.936432E-03             2.44969702E+06        -260.237E+03              321.825043E+06           161.247314E+06           276.588959E+06             1.53129447E-03        -489.039795E-06            -3.38301492E-06           1.58689988E-03         543.144653E-06           -69.4078674E-03          -87.0469971E-06           69.9510193E-03         -543.144653E-06           -69.8969116E-03          -90.4276962E-06           71.5379028E-03            0.                     163.448822E+06             1.60775661E+15          27.9981747E-06           43.3307419E-03 
                  55.E+03                  25.7645016               26.3471985              582.696289E-03            81.9131546E-03          411.096985E-03             2.44596696E+06        -263.03949E+03            323.021332E+06           161.849701E+06           277.628174E+06             1.53033185E-03        -488.571228E-06            -3.41948533E-06           1.59516907E-03         547.553284E-06           -70.7323074E-03          -91.7366714E-06           71.2798615E-03         -547.553284E-06           -71.2208786E-03          -95.1546249E-06           72.8750153E-03            0.                     164.031723E+06             1.63836324E+15          27.9905453E-06           43.3194351E-03 
                  56.E+03                  25.7576637               26.3510818              593.425781E-03            83.4427567E-03          411.253387E-03             2.44213796E+06        -265.95401E+03            324.199402E+06           162.44278E+06            278.651733E+06             1.52959561E-03        -488.090302E-06            -3.45733857E-06           1.60333145E-03         551.913757E-06           -72.0561142E-03          -96.5308838E-06           72.6080475E-03         -551.913757E-06           -72.54422E-03            -99.9887772E-06           74.2113876E-03            0.                     164.606293E+06             1.6689558E+15           27.9831066E-06           43.3084412E-03 
                  57.E+03                  25.750988                26.3551388              604.146729E-03            84.9713974E-03          411.405792E-03             2.43811893E+06        -268.758514E+03           325.359375E+06           163.026779E+06           279.65976E+06              1.52862406E-03        -487.600342E-06            -3.4939568E-06            1.61138749E-03         556.226074E-06           -73.3791199E-03         -101.431854E-06            73.9353561E-03         -556.226074E-06           -73.8667297E-03         -104.924316E-06            75.54673E-03              0.                     165.171097E+06             1.69952786E+15          27.975872E-06            43.297699E-03  
                  58.E+03                  25.7445011               26.3593636              614.86084E-03             86.4992523E-03          411.554138E-03             2.4340229E+06         -271.71225E+03            326.502167E+06           163.60199E+06            280.652954E+06             1.52787328E-03        -487.099854E-06            -3.53218818E-06           1.61934268E-03         560.491821E-06           -74.7014847E-03         -106.428871E-06            75.2619934E-03         -560.491821E-06           -75.1885834E-03         -109.961838E-06            76.8813248E-03            0.                     165.728287E+06             1.73008549E+15          27.9688206E-06           43.2872696E-03 
                  59.E+03                  25.738163                26.3637314              625.566406E-03            88.0261459E-03          411.698975E-03             2.42974091E+06        -274.52951E+03            327.628143E+06           164.168762E+06           281.631805E+06             1.52687275E-03        -486.59259E-06             -3.56893015E-06           1.62719619E-03         564.710938E-06           -76.0230179E-03         -111.531586E-06            76.587738E-03          -564.710938E-06           -76.5096054E-03         -115.10041E-06             78.2149124E-03            0.                     166.276108E+06             1.76062286E+15          27.9619331E-06           43.2770653E-03 
                  60.E+03                  25.7319984               26.3682575              636.262085E-03            89.5517807E-03          411.839966E-03             2.42528105E+06        -277.247742E+03           328.737396E+06           164.727112E+06           282.596283E+06             1.5256573E-03         -486.079071E-06            -3.60418391E-06           1.6349498E-03          568.882996E-06           -77.3434906E-03         -116.733711E-06            77.9123764E-03         -568.882996E-06           -77.8295898E-03         -120.337471E-06            79.547348E-03             0.                     166.815308E+06             1.79113591E+15          27.9552345E-06           43.2671509E-03 
                  61.E+03                  25.7259922               26.3729439              646.948853E-03            91.0763321E-03          411.977234E-03             2.42068887E+06        -279.937256E+03           329.830933E+06           165.277527E+06           283.547272E+06             1.52454841E-03        -485.560059E-06            -3.63917923E-06           1.64260626E-03         573.009399E-06           -78.663063E-03          -122.031898E-06            79.2360687E-03         -573.009399E-06           -79.1485977E-03         -125.67337E-06             80.878685E-03             0.                     167.346924E+06             1.82162642E+15          27.9487152E-06           43.2574921E-03 
                  62.E+03                  25.7201366               26.3777695              657.629639E-03            92.6002426E-03          412.110992E-03             2.41613698E+06        -282.953735E+03           330.909302E+06           165.820114E+06           284.485138E+06             1.52387893E-03        -485.03244E-06             -3.67837667E-06           1.65017354E-03         577.09314E-06            -79.9820404E-03         -127.43589E-06             80.5591583E-03         -577.09314E-06            -80.4670639E-03         -131.114029E-06            82.2093124E-03            0.                     167.872772E+06             1.85210454E+15          27.9423523E-06           43.2480812E-03 
                  63.E+03                  25.7144241               26.3827286              668.302063E-03            94.1230469E-03          412.241608E-03             2.41140318E+06        -285.807739E+03           331.972839E+06           166.355225E+06           285.410248E+06             1.52284157E-03        -484.501343E-06            -3.71545696E-06           1.65764832E-03         581.133301E-06           -81.3001556E-03         -132.939194E-06            81.8813171E-03         -581.133301E-06           -81.7846832E-03         -136.656113E-06            83.5389328E-03            0.                     168.389511E+06             1.88256133E+15          27.9361382E-06           43.238884E-03  
                  64.E+03                  25.7088585               26.3878212              678.965088E-03            95.6447144E-03          412.368835E-03             2.40647507E+06        -288.484497E+03           333.021759E+06           166.883011E+06           286.322876E+06             1.52167666E-03        -483.968201E-06            -3.75024319E-06           1.66503108E-03         585.129333E-06           -82.6172791E-03         -138.548096E-06            83.2024231E-03         -585.129333E-06           -83.1012421E-03         -142.299683E-06            84.8674393E-03            0.                     168.89856E+06              1.91299486E+15          27.9300938E-06           43.2299385E-03 
                  65.E+03                  25.7034321               26.393055               689.618469E-03            97.1651535E-03          412.492737E-03             2.40138507E+06        -291.043243E+03           334.056305E+06           167.403702E+06           287.223206E+06             1.52039862E-03        -483.43338E-06             -3.78353429E-06           1.67232406E-03         589.081421E-06           -83.9333191E-03         -144.246384E-06            84.5223923E-03         -589.081421E-06           -84.416748E-03          -148.027786E-06            86.194725E-03             0.                     169.40036E+06              1.94340217E+15          27.9242001E-06           43.2212029E-03 
                  66.E+03                  25.6981564               26.3984184              700.262817E-03            98.6843872E-03          412.613525E-03             2.3962338E+06         -293.667999E+03           335.077271E+06           167.917358E+06           288.111847E+06             1.51925695E-03        -482.896423E-06            -3.81765866E-06           1.67953014E-03         592.990784E-06           -85.2483902E-03         -150.039337E-06            85.8413773E-03         -592.990784E-06           -85.7312775E-03         -153.863342E-06            87.5208969E-03            0.                     169.895935E+06             1.97378814E+15          27.9184589E-06           43.2126999E-03 
                  67.E+03                  25.6930008               26.403904               710.899597E-03           100.202652E-03           412.731171E-03             2.39106107E+06        -296.453491E+03           336.084991E+06           168.424255E+06           288.989044E+06             1.51825416E-03        -482.356781E-06            -3.85392213E-06           1.68665397E-03         596.858948E-06           -86.5625916E-03         -155.941116E-06            87.1594543E-03         -596.858948E-06           -87.0449524E-03         -159.79715E-06             88.8460999E-03            0.                     170.385544E+06             2.00415277E+15          27.9128723E-06           43.2044182E-03 
                  68.E+03                  25.6879845               26.4095078              721.526794E-03           101.719696E-03           412.846008E-03             2.38574386E+06        -299.114258E+03           337.079651E+06           168.924622E+06           289.855011E+06             1.51704764E-03        -481.817261E-06            -3.88848281E-06           1.69369364E-03         600.685608E-06           -87.8757858E-03         -161.939072E-06            88.4764786E-03         -600.685608E-06           -88.3575974E-03         -165.82605E-06             90.1701508E-03            0.                     170.867767E+06             2.03449392E+15          27.9074154E-06           43.196331E-03  
                  69.E+03                  25.6830807               26.4152279              732.145935E-03           103.235703E-03           412.958008E-03             2.38036895E+06        -301.838989E+03           338.061798E+06           169.41864E+06            290.710236E+06             1.51598608E-03        -481.276825E-06            -3.92394567E-06           1.70065224E-03         604.471802E-06           -89.1880875E-03         -168.03038E-06             89.7925415E-03         -604.471802E-06           -89.6693649E-03         -171.954636E-06            91.4932175E-03            0.                     171.344299E+06             2.06481361E+15          27.9020901E-06           43.188446E-03  
                  70.E+03                  25.6783085               26.421072               742.757202E-03           104.750587E-03           413.067169E-03             2.37493706E+06        -304.614258E+03           339.031738E+06           169.906418E+06           291.554901E+06             1.51491058E-03        -480.735992E-06            -3.96000171E-06           1.70753264E-03         608.218445E-06           -90.4994507E-03         -174.224258E-06            91.1076355E-03         -608.218445E-06           -90.9801865E-03         -178.182495E-06            92.8152008E-03            0.                     171.814972E+06             2.09511185E+15          27.8969059E-06           43.1807632E-03 
                  71.E+03                  25.6736488               26.4270096              753.358948E-03           106.264275E-03           413.173615E-03             2.36935782E+06        -307.257263E+03           339.989471E+06           170.388184E+06           292.38916E+06              1.51369655E-03        -480.197052E-06            -3.99429345E-06           1.71433401E-03         611.924988E-06           -91.8097687E-03         -180.519653E-06            92.4216995E-03         -611.924988E-06           -92.2899857E-03         -184.510605E-06            94.1360474E-03            0.                     172.278717E+06             2.125386E+15            27.89184E-06             43.1732635E-03 
                  72.E+03                  25.6691017               26.4330597              763.95166E-03            107.776711E-03           413.277435E-03             2.36365414E+06        -309.80249E+03            340.935608E+06           170.864029E+06           293.21344E+06              1.51242208E-03        -479.66095E-06             -4.02741385E-06           1.7210567E-03          615.591675E-06           -93.1190033E-03         -186.905502E-06            93.7346039E-03         -615.591675E-06           -93.5986786E-03         -190.928116E-06            95.455658E-03             0.                     172.736572E+06             2.15563416E+15          27.8869114E-06           43.1659698E-03 
                  73.E+03                  25.6646767               26.4392128              774.533813E-03           109.287766E-03           413.378662E-03             2.35783601E+06        -312.245758E+03           341.870148E+06           171.334183E+06           294.027802E+06             1.51104689E-03        -479.128265E-06            -4.0592823E-06            1.72770178E-03         619.217834E-06           -94.4270859E-03         -193.381226E-06            95.0463257E-03         -619.217834E-06           -94.9062271E-03         -197.438522E-06            96.774025E-03             0.                     173.188522E+06             2.18585515E+15          27.8821011E-06           43.1588402E-03 
                  74.E+03                  25.6603737               26.4454689              785.107422E-03           110.797592E-03           413.477142E-03             2.35203719E+06        -314.86026E+03            342.793671E+06           171.798553E+06           294.832581E+06             1.50982606E-03        -478.596497E-06            -4.09319925E-06           1.73427415E-03         622.805786E-06           -95.7341385E-03         -199.95285E-06             96.356926E-03          -622.805786E-06           -96.2127457E-03         -204.047424E-06            98.091217E-03             0.                     173.636108E+06             2.21605206E+15          27.8774128E-06           43.1519089E-03 
                  75.E+03                  25.656168                26.4518375              795.669983E-03           112.305916E-03           413.573242E-03             2.34618092E+06        -317.436005E+03           343.706207E+06           172.257309E+06           295.62796E+06              1.50832772E-03        -478.066528E-06            -4.126719E-06             1.74077344E-03         626.355774E-06           -97.0398788E-03         -206.623932E-06            97.6662521E-03         -626.355774E-06           -97.517952E-03          -210.753876E-06            99.4070053E-03            0.                     174.077957E+06             2.2462182E+15           27.8728409E-06           43.1451378E-03 
                  76.E+03                  25.6520767               26.4582977              806.220581E-03           113.812485E-03           413.666779E-03             2.34005499E+06        -319.558502E+03           344.607727E+06           172.710663E+06           296.413971E+06             1.50656879E-03        -477.543518E-06            -4.15424442E-06           1.74719608E-03         629.865601E-06           -98.3441315E-03         -213.379272E-06            98.9740067E-03         -629.865601E-06           -98.8217163E-03         -217.527847E-06           100.721214E-03             0.                     174.512405E+06             2.27635002E+15          27.8684044E-06           43.1385498E-03 
                  77.E+03                  25.6480942               26.464859               816.759521E-03           115.317444E-03           413.757538E-03             2.33380103E+06        -321.558746E+03           345.498535E+06           173.158798E+06           297.190857E+06             1.5049665E-03         -477.026154E-06            -4.1802268E-06            1.75354481E-03         633.335999E-06           -99.6470184E-03         -220.211456E-06           100.280365E-03          -633.335999E-06          -100.124016E-03          -224.393784E-06           102.033905E-03             0.                     174.942261E+06             2.30644917E+15          27.8640862E-06           43.1321487E-03 
                  78.E+03                  25.6442223               26.471508               827.288574E-03           116.820999E-03           413.846283E-03             2.32757688E+06        -323.731506E+03           346.379456E+06           173.601654E+06           297.959137E+06             1.50355613E-03        -476.512634E-06            -4.20843554E-06           1.75982463E-03         636.768982E-06          -100.948685E-03          -227.133972E-06           101.585449E-03          -636.768982E-06          -101.425186E-03          -231.341934E-06           103.345245E-03             0.                     175.368057E+06             2.3365202E+15           27.8598785E-06           43.1259193E-03 
                  79.E+03                  25.6404362               26.4782524              837.807556E-03           118.323143E-03           413.932739E-03             2.32129908E+06        -325.921509E+03           347.250336E+06           174.039551E+06           298.718781E+06             1.50213587E-03        -476.004028E-06            -4.23693562E-06           1.7660346E-03          640.164612E-06          -102.249138E-03          -234.143814E-06           102.889305E-03          -640.164612E-06          -102.725151E-03          -238.386215E-06           104.655342E-03             0.                     175.788544E+06             2.3665626E+15           27.8557625E-06           43.1198349E-03 
                  80.E+03                  25.6367474               26.4850674              848.315491E-03           119.823746E-03           414.017029E-03             2.31496E+06           -328.091003E+03           348.111542E+06           174.47258E+06            299.470062E+06             1.50060141E-03        -475.501465E-06            -4.26516628E-06           1.77217591E-03         643.522888E-06          -103.548294E-03          -241.242111E-06           104.19178E-03           -643.522888E-06          -104.023773E-03          -245.511063E-06           105.963982E-03             0.                     176.204086E+06             2.3965745E+15           27.8517609E-06           43.113903E-03  
                  81.E+03                  25.6331558               26.4919662              858.808716E-03           121.322266E-03           414.099213E-03             2.30848384E+06        -329.983246E+03           348.962677E+06           174.900543E+06           300.212799E+06             1.49850368E-03        -475.005737E-06            -4.28981018E-06           1.77824688E-03         646.842896E-06          -104.845612E-03          -248.420288E-06           105.492447E-03          -646.842896E-06          -105.320633E-03          -252.711594E-06           107.270699E-03             0.                     176.614075E+06             2.4265449E+15           27.8478489E-06           43.1081047E-03 
                  82.E+03                  25.6296768               26.4989662              869.290039E-03           122.818932E-03           414.178741E-03             2.30189991E+06        -331.756744E+03           349.804504E+06           175.323792E+06           300.94754E+06              1.49668241E-03        -474.517242E-06            -4.31282759E-06           1.78424931E-03         650.125061E-06          -106.141403E-03          -255.675964E-06           106.791512E-03          -650.125061E-06          -106.615929E-03          -259.987518E-06           108.575745E-03             0.                     177.019501E+06             2.45647836E+15          27.8440685E-06           43.1025047E-03 
                  83.E+03                  25.6262817               26.5060425              879.757141E-03           124.313599E-03           414.256378E-03             2.2951231E+06         -333.217255E+03           350.636749E+06           175.742355E+06           301.674133E+06             1.49467933E-03        -474.038513E-06            -4.33192682E-06           1.79018211E-03         653.36853E-06           -107.435448E-03          -263.002441E-06           108.088829E-03          -653.36853E-06           -107.909485E-03          -267.331726E-06           109.878983E-03             0.                     177.419235E+06             2.48637271E+15          27.8403816E-06           43.0970612E-03 
                  84.E+03                  25.6229801               26.5131989              890.213501E-03           125.806702E-03           414.331726E-03             2.28843403E+06        -334.97699E+03            351.460236E+06           176.156311E+06           302.393097E+06             1.49308121E-03        -473.565094E-06            -4.35469723E-06           1.79605114E-03         656.576233E-06          -108.728142E-03          -270.406494E-06           109.384705E-03          -656.576233E-06          -109.201698E-03          -274.760864E-06           111.180771E-03             0.                     177.816452E+06             2.51623368E+15          27.8368053E-06           43.0917435E-03 
                  85.E+03                  25.6197586               26.5204239              900.660461E-03           127.298447E-03           414.405304E-03             2.28189898E+06        -337.153259E+03           352.275146E+06           176.565826E+06           303.104431E+06             1.49176538E-03        -473.095245E-06            -4.38301516E-06           1.80186093E-03         659.750122E-06          -110.019699E-03          -277.895477E-06           110.679436E-03          -659.750122E-06          -110.492783E-03          -282.284546E-06           112.481293E-03             0.                     178.210556E+06             2.54606962E+15          27.8333035E-06           43.0865593E-03 
                  86.E+03                  25.6166096               26.5277042              911.098083E-03           128.78894E-03            414.477386E-03             2.27545905E+06        -339.632507E+03           353.081909E+06           176.971039E+06           303.808716E+06             1.49048102E-03        -472.629272E-06            -4.41523647E-06           1.80761278E-03         662.891663E-06          -111.310165E-03          -285.485291E-06           111.973061E-03          -662.891663E-06          -111.782791E-03          -289.903717E-06           113.780678E-03             0.                     178.600815E+06             2.57587886E+15          27.8298721E-06           43.0814819E-03 
                  87.E+03                  25.613533                26.5350513              921.526184E-03           130.27803E-03            414.54776E-03              2.26895404E+06        -342.093506E+03           353.880402E+06           177.372147E+06           304.505829E+06             1.489097E-03          -472.169891E-06            -4.44727612E-06           1.81330431E-03         666.000671E-06          -112.599442E-03          -293.157532E-06           113.26545E-03           -666.000671E-06          -113.071602E-03          -297.608551E-06           115.078735E-03             0.                     178.986176E+06             2.60566068E+15          27.8265324E-06           43.0765305E-03 
                  88.E+03                  25.6105232               26.5424671              931.942261E-03           131.765457E-03           414.616394E-03             2.262321E+06          -344.34201E+03            354.670593E+06           177.769226E+06           305.195892E+06             1.48742175E-03        -471.718781E-06            -4.4764967E-06            1.81893468E-03         669.075867E-06          -113.887299E-03          -300.922668E-06           114.556335E-03          -669.075867E-06          -114.359016E-03          -305.400452E-06           116.375298E-03             0.                     179.366608E+06             2.63540912E+15          27.8232727E-06           43.0716934E-03 
                  89.E+03                  25.6076088               26.5499535              942.345947E-03           133.250992E-03           414.683228E-03             2.25552702E+06        -346.311493E+03           355.452515E+06           178.162231E+06           305.878937E+06             1.48555136E-03        -471.277344E-06            -4.50198078E-06           1.82450306E-03         672.11615E-06           -115.173508E-03          -308.769043E-06           115.845612E-03          -672.11615E-06           -115.644791E-03          -313.265961E-06           117.670135E-03             0.                     179.742401E+06             2.66512084E+15          27.8201008E-06           43.0669975E-03 
                  90.E+03                  25.604763                26.5575027              952.737976E-03           134.734787E-03           414.748199E-03             2.24867892E+06        -348.230255E+03           356.226532E+06           178.55127E+06            306.555145E+06             1.48380589E-03        -470.844269E-06            -4.52697706E-06           1.83001173E-03         675.122498E-06          -116.458252E-03          -316.691345E-06           117.133362E-03          -675.122498E-06          -116.929085E-03          -321.224579E-06           118.963371E-03             0.                     180.114777E+06             2.69479632E+15          27.817009E-06            43.0624275E-03 
                  91.E+03                  25.6020031               26.5651169              963.118347E-03           136.216904E-03           414.811279E-03             2.24177909E+06        -350.105988E+03           356.992889E+06           178.936462E+06           307.224823E+06             1.48211324E-03        -470.420197E-06            -4.55133724E-06           1.8354615E-03          678.095032E-06          -117.741547E-03          -324.696533E-06           118.419609E-03          -678.095032E-06          -118.211945E-03          -329.246521E-06           120.255074E-03             0.                     180.483292E+06             2.72443867E+15          27.814003E-06            43.057972E-03  
                  92.E+03                  25.5992966               26.5727863              973.486206E-03           137.69722E-03            414.872986E-03             2.23477578E+06        -351.82724E+03            357.751495E+06           179.317795E+06           307.887848E+06             1.48030388E-03        -470.006104E-06            -4.57370329E-06           1.84085202E-03         681.033386E-06          -119.023239E-03          -332.772247E-06           119.7043E-03            -681.033386E-06          -119.49324E-03           -337.34671E-06            121.545135E-03             0.                     180.84758E+06              2.75404453E+15          27.8110752E-06           43.0536346E-03 
                  93.E+03                  25.5966797               26.5805225              983.844299E-03           139.176086E-03           414.932922E-03             2.22797608E+06        -353.997009E+03           358.502777E+06           179.695129E+06           308.544373E+06             1.47886825E-03        -469.595734E-06            -4.60193777E-06           1.84619069E-03         683.940735E-06          -120.303749E-03          -340.943207E-06           120.987694E-03          -683.940735E-06          -120.773346E-03          -345.543945E-06           122.83387E-03              0.                     181.210678E+06             2.7836225E+15           27.8082237E-06           43.0494003E-03 
                  94.E+03                  25.5941181               26.5883064              994.191895E-03           140.653473E-03           414.991608E-03             2.2212429E+06         -356.351257E+03           359.247223E+06           180.068863E+06           309.194916E+06             1.47734797E-03        -469.191254E-06            -4.63255882E-06           1.85147691E-03         686.817871E-06          -121.582939E-03          -349.191254E-06           122.269775E-03          -686.817871E-06          -122.052116E-03          -353.824097E-06           124.121231E-03             0.                     181.569977E+06             2.81316924E+15          27.805439E-06            43.0452728E-03 
                  95.E+03                  25.59161                 26.5961418                1.00452948             142.129242E-03           415.048706E-03             2.21443796E+06        -358.632996E+03           359.984375E+06           180.439056E+06           309.839172E+06             1.4758271E-03         -468.795288E-06            -4.66218615E-06           1.85670972E-03         689.664734E-06          -122.860817E-03          -357.53241E-06            123.550491E-03          -689.664734E-06          -123.329643E-03          -362.194397E-06           125.407188E-03             0.                     181.924988E+06             2.84268498E+15          27.802721E-06            43.0412598E-03 
                  96.E+03                  25.5891666               26.6040306                1.0148561              143.603516E-03           415.104584E-03             2.2075448E+06         -360.79776E+03            360.714661E+06           180.805862E+06           310.4776E+06               1.47426689E-03        -468.408081E-06            -4.69035149E-06           1.86188841E-03         692.480774E-06          -124.137375E-03          -365.958099E-06           124.829865E-03          -692.480774E-06          -124.605812E-03          -370.641937E-06           126.691727E-03             0.                     182.27626E+06              2.87217069E+15          27.8000717E-06           43.0373306E-03 
                  97.E+03                  25.5867882               26.6119652                1.02517188             145.076248E-03           415.158936E-03             2.2005949E+06         -362.880493E+03           361.438202E+06           181.16922E+06            311.110199E+06             1.47266674E-03        -468.030182E-06            -4.71741056E-06           1.86701381E-03         695.26593E-06           -125.412552E-03          -374.466187E-06           126.107841E-03          -695.26593E-06           -125.880569E-03          -379.184479E-06           127.974854E-03             0.                     182.624146E+06             2.90162444E+15          27.7974834E-06           43.0334969E-03 
                  98.E+03                  25.5844688               26.6199455                1.03547621             146.547195E-03           415.211945E-03             2.19352293E+06        -364.764008E+03           362.154785E+06           181.529312E+06           311.736908E+06             1.47100258E-03        -467.662628E-06            -4.74193764E-06           1.87208545E-03         698.019958E-06          -126.686302E-03          -383.051819E-06           127.384293E-03          -698.019958E-06          -127.153961E-03          -387.7883E-06             129.256409E-03             0.                     182.968124E+06             2.93104386E+15          27.7949619E-06           43.0297546E-03 
                  99.E+03                  25.5822086               26.6279755                1.04577041             148.016617E-03           415.263672E-03             2.18646002E+06        -366.709747E+03           362.86499E+06            181.886017E+06           312.358093E+06             1.46944678E-03        -467.304138E-06            -4.76720762E-06           1.87710607E-03         700.743286E-06          -127.958717E-03          -391.719391E-06           128.65947E-03           -700.743286E-06          -128.425995E-03          -396.475433E-06           130.53656E-03              0.                     183.309601E+06             2.96043301E+15          27.7925014E-06           43.0261192E-03 
                 100.E+03                  25.5800037               26.6360512                1.056054               149.484589E-03           415.314209E-03             2.17943096E+06        -368.753235E+03           363.568634E+06           182.239548E+06           312.973541E+06             1.46794808E-03        -466.95401E-06             -4.79376459E-06           1.88207626E-03         703.436768E-06          -129.229828E-03          -400.463806E-06           129.933243E-03          -703.436768E-06          -129.696793E-03          -405.251068E-06           131.815323E-03             0.                     183.648132E+06             2.98979211E+15          27.7901058E-06           43.0225639E-03 




