
                     X                      Cbar_L                 Cbar_total               Cbar_trap                   PEEQ                  PSI_Cbar_L                  S_11                     S_12                     S_22                     S_33                   S_Mises                   dPEEQ                eps_elastic_11           eps_elastic_12           eps_elastic_22           eps_elastic_33           eps_plastic_11           eps_plastic_12           eps_plastic_22           eps_plastic_33            eps_total_11             eps_total_12             eps_total_22             eps_total_33          hydrostatic_stress             rho_d                   theta_L                 theta_trap      

                   0.                       0.                       0.                       0.                       0.                       0.                       0.                       0.                       0.                       0.                       0.                       0.                       0.                       0.                       0.                       0.                       0.                       0.                       0.                       0.                       0.                       0.                       0.                       0.                       0.                       0.                       0.                       0.            
                   1.E+03                  26.9999981               27.0000343               37.1929169E-06            0.                     382.857208E-03           920.562256E+03            47.3932495E+03          123.115349E+06            36.432312E+06           108.872902E+06             0.                    -230.826431E-06           616.101257E-09           563.43988E-06              0.                       0.                       0.                       0.                       0.                    -230.826431E-06           616.101257E-09           563.43988E-06              0.                      55.4356003E+06           99.9999771E+09           29.3327847E-06           45.3027039E-03 
                   2.E+03                  27.0905724               27.0906143               37.3120117E-06            0.                     380.786957E-03             1.83670747E+06          94.7716217E+03          246.158096E+06            72.8430786E+06          217.684402E+06             0.                    -461.541412E-06             1.23203433E-06           1.12654757E-03           0.                       0.                       0.                       0.                       0.                    -461.541412E-06             1.23203433E-06           1.12654757E-03           0.                     108.888206E+06            99.9999771E+09           29.4311886E-06           45.4477806E-03 
                   3.E+03                  27.2194366               27.2194805               37.4814148E-06            0.                     377.841309E-03             2.748456E+06           142.136368E+03           369.128326E+06           109.232323E+06           326.434601E+06             0.                    -692.145264E-06             1.84778035E-06           1.6893239E-03            0.                       0.                       0.                       0.                       0.                    -692.145264E-06             1.84778035E-06           1.6893239E-03            0.                     162.308044E+06            99.9999771E+09           29.5711918E-06           45.6541023E-03 
                   4.E+03                  27.379303                27.3793449               37.6914406E-06            0.                     374.187225E-03             3.655828E+06           189.477371E+03           492.026276E+06           145.600098E+06           435.123657E+06             0.                    -922.637817E-06             2.46326995E-06           2.25176954E-03           0.                       0.                       0.                       0.                       0.                    -922.637817E-06             2.46326995E-06           2.25176954E-03           0.                     215.695099E+06            99.9999771E+09           29.7448673E-06           45.9099388E-03 
                   5.E+03                  27.5649128               27.5661221                1.21429014E-03         155.365646E-06           369.944885E-03            13.2196312E+06         -513.307983E+03           596.59375E+06            187.109573E+06           518.768677E+06           155.365646E-06            -1.09408152E-03          -6.67304087E-06           2.69785023E-03          36.2031631E-06         -113.486298E-06            -5.20806646E-06         149.689468E-06           -36.2031631E-06           -1.20756781E-03         -11.8811722E-06            2.8475399E-03            0.                     265.567444E+06             3.20731306E+12          29.9465103E-06           46.2067795E-03 
                   6.E+03                  27.7646484               27.7721748                7.52570724E-03         980.940063E-06           365.379303E-03            22.103899E+06            -3.21101069E+06         618.074646E+06           228.00737E+06            524.305054E+06           825.57428E-06             -1.15741169E-03         -41.7429237E-06            2.71639872E-03         180.960938E-06          -748.175049E-06            -5.04856157E-06         929.136047E-06          -180.960938E-06            -1.90558684E-03         -46.7914772E-06            3.64553547E-03           0.                     282.303741E+06            19.7187996E+12           30.1635075E-06           46.5260429E-03 
                   7.E+03                  27.1073532               27.1197815               12.4242544E-03            1.65886068E-03         380.403198E-03            12.3165388E+06          251.990494E+03           643.592834E+06           244.097061E+06           553.09552E+06            677.920898E-06            -1.22794259E-03           3.27592707E-06           2.87535286E-03         278.630859E-06            -1.27999949E-03         926.074341E-09             1.55863035E-03        -278.630859E-06            -2.50794268E-03           4.20197487E-06           4.4339838E-03            0.                     320.410858E+06            33.2772179E+12           29.4494305E-06           45.4746552E-03 
                   8.E+03                  26.9252453               26.9438019               18.5608006E-03            2.49629736E-03         384.565765E-03            12.6794701E+06           87.9834976E+03          670.203613E+06           270.530762E+06           573.830933E+06           837.43634E-06             -1.29466701E-03           1.14383149E-06           2.97924089E-03         381.366425E-06            -1.94848526E-03           3.15368581E-06           2.3298521E-03         -381.366425E-06            -3.24315333E-03           4.29747152E-06           5.30909395E-03           0.                     323.318634E+06            50.0259514E+12           29.2515717E-06           45.1829453E-03 
                   9.E+03                  26.8942928               26.9202728               25.985918E-03             3.5010438E-03          385.273285E-03            11.1469564E+06         -601.771973E+03           695.622375E+06           296.737701E+06           595.474548E+06             1.00474608E-03          -1.38112736E-03          -7.82301474E-06           3.06796455E-03         475.212311E-06            -2.76961851E-03         405.205383E-09             3.24483037E-03        -475.212311E-06            -4.15074635E-03          -7.41780949E-06           6.31279421E-03           0.                     333.822784E+06            70.1208649E+12           29.217947E-06            45.1333313E-03 
                  10.E+03                  26.7452087               26.7788181               33.6106911E-03            4.55405474E-03         388.680847E-03             9.76086426E+06          -1.91603899E+06         718.135437E+06           320.748291E+06           614.998413E+06             1.05301082E-03          -1.4738059E-03          -24.9084549E-06            3.13062906E-03         547.612305E-06            -3.64455485E-03          -8.34039402E-06           4.19216633E-03        -547.612305E-06            -5.11836004E-03         -33.2486305E-06            7.32279539E-03           0.                     341.566864E+06            91.1810913E+12           29.0559864E-06           44.8943748E-03 
                  11.E+03                  26.5565643               26.5977459               41.1834564E-03            5.61912775E-03         392.992767E-03             9.68614388E+06          -2.1230619E+06          738.886108E+06           338.494629E+06           632.529846E+06             1.06507289E-03          -1.5303899E-03          -27.5998173E-06            3.20941091E-03         606.866211E-06            -4.53651094E-03         -17.372448E-06             5.14337826E-03        -606.866211E-06            -6.06690264E-03         -44.9722137E-06            8.35279083E-03           0.                     363.123566E+06           112.482536E+12            28.851038E-06            44.5918388E-03 
                  12.E+03                  26.4790955               26.5283031               49.208313E-03             6.73374033E-03         394.763428E-03             9.91592216E+06          -1.03681755E+06         758.602478E+06           352.222717E+06           649.175049E+06             1.11461341E-03          -1.56396735E-03         -13.47861E-06              3.30249643E-03         661.026672E-06            -5.47422075E-03         -20.3646431E-06            6.13524675E-03        -661.026672E-06            -7.03818846E-03         -33.8433762E-06            9.43774319E-03           0.                     381.300385E+06           134.774826E+12            28.7668858E-06           44.4675293E-03 
                  13.E+03                  26.4112015               26.4687672               57.5652733E-03            7.89745617E-03         396.315216E-03             9.98155975E+06        -746.805481E+03           776.961914E+06           365.387451E+06           664.819214E+06             1.16371441E-03          -1.60070515E-03          -9.70844078E-06           3.38466573E-03         709.433044E-06            -6.45756674E-03         -22.4465466E-06            7.16699982E-03        -709.433044E-06            -8.05827236E-03         -32.1543922E-06           10.5516672E-03            0.                     389.220093E+06           158.049103E+12            28.693121E-06            44.3585701E-03 
                  14.E+03                  26.2919102               26.3581696               66.2608109E-03            9.13057709E-03         399.042053E-03             9.91291237E+06        -742.14801E+03            794.515198E+06           377.737457E+06           679.927429E+06             1.23312199E-03          -1.63788259E-03          -9.64786148E-06           3.46203184E-03         752.977478E-06            -7.50400305E-03         -24.7009449E-06            8.2569809E-03         -752.977478E-06            -9.14188576E-03         -34.3490105E-06           11.7190142E-03            0.                     398.065796E+06           182.711563E+12            28.5635262E-06           44.1670647E-03 
                  15.E+03                  26.1676674               26.2430038               75.3391571E-03           10.4293709E-03          401.881866E-03             9.74831676E+06        -821.736023E+03           811.323669E+06           389.430359E+06           694.506897E+06             1.29879332E-03          -1.676373E-03           -10.6825752E-06            3.53386497E-03         791.559814E-06            -8.61012077E-03         -27.4916534E-06            9.40167999E-03        -791.559814E-06           -10.2864952E-03          -38.1745071E-06           12.935544E-03             0.                     406.042755E+06           208.687408E+12            28.4285336E-06           43.9675179E-03 
                  16.E+03                  26.041048                26.1258125               84.7694092E-03           11.7900486E-03          404.775909E-03             9.53553772E+06        -937.505493E+03           827.449829E+06           400.289825E+06           708.570251E+06             1.36067677E-03          -1.71433437E-03         -12.1876879E-06            3.60210752E-03         825.569153E-06            -9.77247238E-03         -30.8748131E-06           10.5980387E-03         -825.569153E-06           -11.486804E-03           -43.0629883E-06           14.2001495E-03            0.                     414.21582E+06            235.900955E+12            28.2909946E-06           43.7640686E-03 
                  17.E+03                  25.9233284               26.0178795               94.5538101E-03           13.2086239E-03          407.466766E-03             9.37144089E+06          -1.00644708E+06         843.009399E+06           410.273102E+06           722.12915E+06              1.41857624E-03          -1.749964E-03           -13.0837212E-06            3.66868424E-03         855.896362E-06           -10.9869413E-03          -34.622879E-06            11.8428326E-03         -855.896362E-06           -12.7369013E-03          -47.7065048E-06           15.5115175E-03            0.                     422.637054E+06           264.272491E+12            28.1630955E-06           43.574852E-03  
                  18.E+03                  25.8209114               25.9256191              104.703903E-03            14.6825514E-03          409.807556E-03             9.28945637E+06        -938.197021E+03           858.082581E+06           419.329041E+06           735.218384E+06             1.47392988E-03          -1.78149855E-03         -12.1965933E-06            3.73565745E-03         883.758545E-06           -12.2506418E-03          -37.8159714E-06           13.1343985E-03         -883.758545E-06           -14.0321398E-03          -50.0123711E-06           16.8700619E-03            0.                     431.434937E+06           293.751038E+12            28.0518398E-06           43.4101868E-03 
                  19.E+03                  25.7314129               25.8466587              115.242142E-03            16.2145691E-03          411.85318E-03              9.23588753E+06        -844.887512E+03           872.702393E+06           427.805389E+06           747.901245E+06             1.53201497E-03          -1.81090152E-03         -10.9834805E-06            3.80163121E-03         909.800659E-06           -13.5656471E-03          -40.3812447E-06           14.4754477E-03         -909.800659E-06           -15.3765478E-03          -51.3650589E-06           18.2770786E-03            0.                     439.335999E+06           324.391449E+12            27.9546089E-06           43.2662125E-03 
                  20.E+03                  25.6431732               25.7693119              126.127632E-03            17.8050289E-03          413.870087E-03             9.19180393E+06        -759.36853E+03            886.898804E+06           435.858978E+06           760.215393E+06             1.59045804E-03          -1.83897603E-03          -9.87177181E-06           3.86611938E-03         934.360535E-06           -14.9320984E-03          -42.3866119E-06           15.8664589E-03         -934.360535E-06           -16.7710781E-03          -52.2584038E-06           19.732584E-03             0.                     446.743408E+06           356.200531E+12            27.8587399E-06           43.1242447E-03 
                  21.E+03                  25.5564041               25.6937561              137.348969E-03            19.4525242E-03          415.853516E-03             9.14490986E+06        -679.878479E+03           900.68573E+06            443.571838E+06           772.181274E+06             1.64749682E-03          -1.86616421E-03          -8.83828735E-06           3.92885232E-03         957.610657E-06           -16.3486786E-03          -43.8609886E-06           17.3062916E-03         -957.610657E-06           -18.2148399E-03          -52.7001991E-06           21.2351398E-03            0.                     453.782684E+06           389.150421E+12            27.7644749E-06           42.9845772E-03 
                  22.E+03                  25.4717064               25.6205959              148.884018E-03            21.153717E-03           417.78949E-03              9.09264374E+06        -589.77948E+03            914.071472E+06           450.973511E+06           783.807129E+06             1.70119476E-03          -1.89255917E-03          -7.66698217E-06           3.98980403E-03         979.665466E-06           -17.8124199E-03          -44.7157669E-06           18.7920856E-03         -979.665466E-06           -19.7049789E-03          -52.38311E-06             22.7818832E-03            0.                     460.569214E+06           423.174377E+12            27.6724548E-06           42.8482246E-03 
                  23.E+03                  25.3905945               25.5516033              161.005386E-03            22.9462681E-03          419.643341E-03             8.99396038E+06        -401.506012E+03           927.333801E+06           458.274719E+06           795.367432E+06             1.79254377E-03          -1.91940439E-03          -5.21946669E-06           4.04980373E-03           1.00091994E-03         -19.355711E-03           -44.1539192E-06           20.3566265E-03           -1.00091994E-03         -21.2751064E-03          -49.3726082E-06           24.4064255E-03            0.                     467.114166E+06           459.02533E+12             27.5843391E-06           42.7176208E-03 
                  24.E+03                  25.3175907               25.4915428              173.951111E-03            24.8600826E-03          421.312164E-03             8.87528801E+06        -141.690994E+03           940.679932E+06           465.537476E+06           807.019409E+06             1.91382122E-03          -1.94662106E-03          -1.84195232E-06           4.11010933E-03           1.02168345E-03         -21.0044098E-03          -41.3927765E-06           22.0260925E-03           -1.02168345E-03         -22.9510307E-03          -43.2346115E-06           26.1362038E-03            0.                     473.842896E+06           497.301727E+12            27.5050144E-06           42.6000061E-03 
                  25.E+03                  25.2421494               25.4290657              186.918732E-03            26.7901039E-03          423.03656E-03              8.84166622E+06         -38.5209999E+03          953.45575E+06            472.324585E+06           818.107361E+06             1.93002474E-03          -1.9712925E-03         -500.724152E-09             4.16869736E-03           1.04134595E-03         -22.66786E-03            -37.9328537E-06           23.7092113E-03           -1.04134595E-03         -24.6391602E-03          -38.434227E-06            27.8779049E-03            0.                     480.627563E+06           535.902161E+12            27.4230652E-06           42.4784698E-03 
                  26.E+03                  25.1801605               25.3799553              199.799438E-03            28.7040634E-03          424.453522E-03             8.86811256E+06         -43.1049995E+03          965.514587E+06           478.617798E+06           828.524475E+06             1.91395319E-03          -1.99333251E-03        -560.40155E-09              4.22486734E-03           1.06004059E-03         -24.3179398E-03          -34.6847801E-06           25.3779774E-03           -1.06004059E-03         -26.311264E-03           -35.245903E-06            29.6028423E-03            0.                     487.011444E+06           574.181335E+12            27.355711E-06            42.3785553E-03 
                  27.E+03                  25.1134129               25.3257332              212.329727E-03            30.5821533E-03          425.979309E-03             8.92084789E+06         -98.3294983E+03          976.80365E+06            484.454285E+06           838.253235E+06             1.87809145E-03          -2.013134E-03            -1.27821839E-06           4.27810574E-03           1.07783318E-03         -25.9373627E-03          -32.0675316E-06           27.0151939E-03           -1.07783318E-03         -27.9504967E-03          -33.3465309E-06           31.2933064E-03            0.                     492.871429E+06           611.74292E+12             27.2831974E-06           42.2709579E-03 
                  28.E+03                  25.0597439               25.284111               224.366089E-03            32.3822784E-03          427.205658E-03             8.97171593E+06        -155.160995E+03           987.154785E+06           489.791077E+06           847.171814E+06             1.80012882E-03          -2.03087187E-03          -2.01698995E-06           4.32731867E-03           1.09445405E-03         -27.4897404E-03          -30.1333504E-06           28.5841904E-03           -1.09445405E-03         -29.520607E-03           -32.1501884E-06           32.9115105E-03            0.                     498.075775E+06           647.745605E+12            27.2248993E-06           42.1844482E-03 
                  29.E+03                  25.0008316               25.2366581              235.823547E-03            34.112957E-03           428.552368E-03             9.01406479E+06        -199.552505E+03           996.708252E+06           494.712006E+06           855.407104E+06             1.73067319E-03          -2.04697514E-03          -2.59415531E-06           4.37303782E-03           1.11006176E-03         -28.9823532E-03          -28.7260036E-06           30.0924034E-03           -1.11006176E-03         -31.0293255E-03          -31.3216E-06              34.4654388E-03            0.                     502.843323E+06           682.35907E+12             27.1608906E-06           42.0894394E-03 
                  30.E+03                  24.9472675               25.1941833              246.923843E-03            35.7923279E-03          429.776794E-03             9.04799461E+06        -234.706497E+03             1.0056355E+09          499.311157E+06           863.107544E+06             1.67938137E-03          -2.06184459E-03          -3.05104899E-06           4.41597509E-03           1.12486625E-03         -30.4308472E-03          -27.7271023E-06           31.5557194E-03           -1.12486625E-03         -32.4926949E-03          -30.7762527E-06           35.9716988E-03            0.                     507.289978E+06           715.946899E+12            27.1026936E-06           42.0030327E-03 
                  31.E+03                  24.8968163               25.1545105              257.69458E-03             37.4262772E-03          430.92981E-03              9.0746069E+06         -266.492004E+03             1.01402199E+09         503.637756E+06           870.34613E+06              1.63393772E-03          -2.07571554E-03          -3.46433091E-06           4.45644283E-03           1.13894558E-03         -31.8402901E-03          -27.0753517E-06           32.9792404E-03           -1.13894558E-03         -33.9160042E-03          -30.540163E-06            37.4356804E-03            0.                     511.444336E+06           748.625549E+12            27.0478935E-06           41.9216805E-03 
                  32.E+03                  24.8487129               25.1169243              268.217224E-03            39.026947E-03           432.029297E-03             9.09255409E+06        -291.822998E+03             1.02197027E+09         507.747314E+06           877.212524E+06             1.60067821E-03          -2.08883905E-03          -3.79369879E-06           4.49486542E-03           1.15241599E-03         -33.2211838E-03          -26.6990395E-06           34.3735924E-03           -1.15241599E-03         -35.3100166E-03          -30.4928989E-06           38.8684502E-03            0.                     515.372986E+06           780.638977E+12            26.9956322E-06           41.844059E-03  
                  33.E+03                  24.8026695               25.0811825              278.518097E-03            40.5980263E-03          433.081879E-03             9.10403442E+06        -312.815002E+03             1.02953255E+09         511.66272E+06            883.750305E+06             1.57107389E-03          -2.1013062E-03           -4.06650352E-06           4.53147745E-03           1.16532516E-03         -34.5766563E-03          -26.5540447E-06           35.7419815E-03           -1.16532516E-03         -36.6779709E-03          -30.6190338E-06           40.2734566E-03            0.                     519.112671E+06           812.060608E+12            26.9456062E-06           41.7697563E-03 
                  34.E+03                  24.7585831               25.0472164              288.630005E-03            42.1439247E-03          434.089386E-03             9.11018181E+06        -331.141998E+03             1.03675759E+09         515.408508E+06           890.000732E+06             1.54589665E-03          -2.11321592E-03          -4.30482769E-06           4.5664916E-03            1.177724E-03           -35.9105606E-03          -26.6071301E-06           37.0882912E-03           -1.177724E-03           -38.0237808E-03          -30.9128094E-06           41.6547737E-03            0.                     522.683655E+06           842.978455E+12            26.8977203E-06           41.6986046E-03 
                  35.E+03                  24.7163124               25.0148907              298.578308E-03            43.6681061E-03          435.055634E-03             9.11318874E+06        -345.7565E+03               1.04368591E+09         518.998352E+06           895.997009E+06             1.52418411E-03          -2.12458801E-03          -4.49496269E-06           4.60013342E-03           1.18966532E-03         -37.2258606E-03          -26.8209267E-06           38.4155235E-03           -1.18966532E-03         -39.3504372E-03          -31.3167133E-06           43.0156517E-03            0.                     526.12738E+06            873.462158E+12            26.8517914E-06           41.6303787E-03 
                  36.E+03                  24.6758957               24.9842834              308.391083E-03            45.1742134E-03          435.979431E-03             9.1137476E+06         -358.070496E+03             1.05035257E+09         522.450134E+06           901.768799E+06             1.50611007E-03          -2.13548493E-03          -4.65497541E-06           4.63256836E-03           1.20120144E-03         -38.5256691E-03          -27.1744804E-06           39.7268829E-03           -1.20120144E-03         -40.6611671E-03          -31.8294048E-06           44.3594398E-03            0.                     529.444458E+06           903.584167E+12            26.8078842E-06           41.5651207E-03 
                  37.E+03                  24.6371021               24.9551926              318.085358E-03            46.6646957E-03          436.866058E-03             9.11211205E+06        -369.015015E+03             1.05678463E+09         525.778687E+06           907.339478E+06             1.49048138E-03          -2.14596367E-03          -4.79704618E-06           4.6639061E-03            1.21236908E-03         -39.8121338E-03          -27.6544018E-06           41.0244865E-03           -1.21236908E-03         -41.9580956E-03          -32.4498405E-06           45.6884003E-03            0.                     532.643372E+06           933.39386E+12             26.7657452E-06           41.5024986E-03 
                  38.E+03                  24.5998173               24.927494               327.680206E-03            48.1422997E-03          437.718475E-03             9.10953808E+06        -378.303986E+03             1.06300795E+09         528.994141E+06           912.730286E+06             1.47759938E-03          -2.15603948E-03          -4.91797256E-06           4.69430017E-03           1.22321117E-03         -41.0875778E-03          -28.2381077E-06           42.3107948E-03           -1.22321117E-03         -43.2436104E-03          -33.1554337E-06           47.005085E-03             0.                     535.751892E+06           962.946045E+12            26.7252254E-06           41.4422951E-03 
                  39.E+03                  24.5640259               24.9012127              337.191986E-03            49.6090775E-03          438.536591E-03             9.10549259E+06        -385.994995E+03             1.06904209E+09         532.108887E+06           917.958801E+06             1.46678114E-03          -2.16576171E-03          -5.01816988E-06           4.72382832E-03           1.23376024E-03         -42.3537788E-03          -28.9179153E-06           43.5875359E-03           -1.23376024E-03         -44.5195427E-03          -33.9358826E-06           48.3113708E-03            0.                     538.762939E+06           992.281616E+12            26.6863461E-06           41.3844795E-03 
                  40.E+03                  24.529562                24.8761902              346.627655E-03            51.0660973E-03          439.324188E-03             9.10022736E+06        -393.454987E+03             1.07490218E+09         535.131165E+06           923.037415E+06             1.45701182E-03          -2.17516422E-03          -5.11507845E-06           4.75254869E-03           1.24403739E-03         -43.61166E-03            -29.6946964E-06           44.8556976E-03           -1.24403739E-03         -45.7868271E-03          -34.8082962E-06           49.6082344E-03            0.                     541.684814E+06             1.02142179E+15          26.6489105E-06           41.3288193E-03 
                  41.E+03                  24.4963551               24.8523521              355.998901E-03            52.5149612E-03          440.08316E-03              9.09403992E+06        -401.234009E+03             1.08060348E+09         538.06958E+06            927.979431E+06             1.44886243E-03          -2.18427563E-03          -5.2160759E-06            4.78053474E-03           1.25406504E-03         -44.8625832E-03          -30.5577412E-06           46.1166573E-03           -1.25406504E-03         -47.0468636E-03          -35.7755928E-06           50.8972015E-03            0.                     544.528442E+06             1.05039907E+15          26.6128407E-06           41.2751846E-03 
                  42.E+03                  24.470211                24.8356133              365.404053E-03            53.9577026E-03          440.680817E-03             9.08676338E+06        -408.822998E+03             1.08616114E+09         540.932739E+06           932.798035E+06             1.44274461E-03          -2.19313002E-03          -5.31451941E-06           4.80785227E-03           1.26386845E-03         -46.1083336E-03          -31.5133362E-06           47.3722E-03              -1.26386845E-03         -48.3014526E-03          -36.8289185E-06           52.1800537E-03            0.                     547.30011E+06              1.07925391E+15          26.5844269E-06           41.2329521E-03 
                  43.E+03                  24.4370213               24.8116722              374.646027E-03            55.3945656E-03          441.439392E-03             9.07849216E+06        -417.647003E+03             1.09158301E+09         543.724915E+06           937.499878E+06             1.43686748E-03          -2.20174623E-03          -5.42929029E-06           4.83453369E-03           1.27345598E-03         -47.3490753E-03          -32.5635796E-06           48.6225395E-03           -1.27345598E-03         -49.550827E-03           -37.9924889E-06           53.4570732E-03            0.                     550.002319E+06             1.10799098E+15          26.5483761E-06           41.1793213E-03 
                  44.E+03                  24.4116669               24.7956161              383.946533E-03            56.8264198E-03          442.018982E-03             9.0698719E+06         -427.552002E+03             1.09687948E+09         546.45105E+06            942.093628E+06             1.4318428E-03           -2.21013546E-03          -5.55809689E-06           4.86062765E-03           1.28284335E-03         -48.5855865E-03          -33.7124786E-06           49.8684196E-03           -1.28284335E-03         -50.7957306E-03          -39.2695656E-06           54.7290573E-03            0.                     552.643921E+06             1.13662827E+15          26.5208302E-06           41.1383514E-03 
                  45.E+03                  24.3801689               24.7732735              393.104858E-03            58.2540398E-03          442.738892E-03             9.06123447E+06        -439.1875E+03               1.10205901E+09         549.114868E+06           946.586121E+06             1.42764783E-03          -2.21830535E-03          -5.7093854E-06            4.88617992E-03           1.29204369E-03         -49.8185539E-03          -34.9611473E-06           51.1105881E-03           -1.29204369E-03         -52.0368423E-03          -40.6705055E-06           55.9967613E-03            0.                     555.230896E+06             1.16518116E+15          26.4866104E-06           41.0874443E-03 
                  46.E+03                  24.3510742               24.7533302              402.255676E-03            59.6784973E-03          443.403961E-03             9.05196381E+06        -451.290985E+03             1.10712981E+09         551.721802E+06           950.984863E+06             1.42444277E-03          -2.22628331E-03          -5.86680841E-06           4.91122341E-03           1.30107093E-03         -51.0488205E-03          -36.3193665E-06           52.3498726E-03           -1.30107093E-03         -53.2751007E-03          -42.1848373E-06           57.261097E-03             0.                     557.760132E+06             1.19366992E+15          26.454998E-06            41.040432E-03  
                  47.E+03                  24.3286247               24.7400951              411.4711E-03              61.0998726E-03          443.917145E-03             9.04215813E+06        -463.990509E+03             1.11209726E+09         554.274597E+06           955.294861E+06             1.42136621E-03          -2.23407936E-03          -6.03209639E-06           4.93577766E-03           1.30993199E-03         -52.2764931E-03          -37.7831764E-06           53.5864296E-03           -1.30993199E-03         -54.5105667E-03          -43.813488E-06            58.5222015E-03            0.                     560.237854E+06             1.22209716E+15          26.430603E-06            41.0041428E-03 
                  48.E+03                  24.3052063               24.7258434              420.63736E-03             62.5187988E-03          444.452332E-03             9.03204823E+06        -477.257996E+03             1.11696744E+09         556.775879E+06           959.520691E+06             1.41891992E-03          -2.24169803E-03          -6.20432568E-06           4.95988417E-03           1.31863701E-03         -53.5021286E-03          -39.3550148E-06           54.8207741E-03           -1.31863701E-03         -55.7438354E-03          -45.5594864E-06           59.7806587E-03            0.                     562.6698E+06               1.25047541E+15          26.4051666E-06           40.9662781E-03 
                  49.E+03                  24.2769203               24.7066078              429.691864E-03            63.9360085E-03          445.098938E-03             9.02135658E+06        -491.307007E+03             1.12174761E+09         559.22998E+06            963.669128E+06             1.41721797E-03          -2.24916053E-03          -6.38710451E-06           4.98355579E-03           1.32719553E-03         -54.7263718E-03          -41.0414085E-06           56.053566E-03            -1.32719553E-03         -56.9755402E-03          -47.4320259E-06           61.0371361E-03            0.                     565.053284E+06             1.27881992E+15          26.3744335E-06           40.9205551E-03 
                  50.E+03                  24.2557831               24.6946163              438.837677E-03            65.3515396E-03          445.582092E-03             9.01038742E+06        -506.272003E+03             1.12643957E+09         561.638855E+06           967.741699E+06             1.41553009E-03          -2.25647449E-03          -6.58148956E-06           5.00681734E-03           1.33561134E-03         -55.9492264E-03          -42.8502655E-06           57.2848358E-03           -1.33561134E-03         -58.2056961E-03          -49.4318085E-06           62.2916527E-03            0.                     567.39325E+06              1.30713046E+15          26.3514748E-06           40.8863869E-03 
                  51.E+03                  24.2341156               24.6820641              447.950195E-03            66.7658615E-03          446.07724E-03              8.99885654E+06        -521.434998E+03             1.13104999E+09         564.0047E+06             971.743896E+06             1.41432858E-03          -2.26364493E-03          -6.77854395E-06           5.02968597E-03           1.34389257E-03         -57.1711121E-03          -44.7739143E-06           58.5149994E-03           -1.34389257E-03         -59.4347496E-03          -51.5534782E-06           63.5446892E-03            0.                     569.692993E+06             1.33541727E+15          26.3279381E-06           40.8513565E-03 
                  52.E+03                  24.2126102               24.669651               457.040802E-03            68.1789703E-03          446.568848E-03             8.98713589E+06        -537.13501E+03              1.1355809E+09          566.328308E+06           975.677429E+06             1.41309416E-03          -2.27067542E-03          -6.98256207E-06           5.05218554E-03           1.35204315E-03         -58.3919716E-03          -46.8157234E-06           59.74403E-03             -1.35204315E-03         -60.6626625E-03          -53.8016891E-06           64.7962112E-03            0.                     571.954529E+06             1.36367929E+15          26.3045692E-06           40.8165932E-03 
                  53.E+03                  24.1915169               24.6576271              466.118439E-03            69.5913696E-03          447.051117E-03             8.97525597E+06        -553.107971E+03             1.14003789E+09         568.612366E+06           979.54718E+06              1.41240978E-03          -2.27756929E-03          -7.19042873E-06           5.07433653E-03           1.36007237E-03         -59.6123276E-03          -48.981514E-06            60.972393E-03            -1.36007237E-03         -61.8898849E-03          -56.1733017E-06           66.0467224E-03            0.                     574.180115E+06             1.391927E+15            26.2816467E-06           40.7824745E-03 
                  54.E+03                  24.1709099               24.646101               475.183716E-03            71.0029144E-03          447.521851E-03             8.96324444E+06        -569.692017E+03             1.1444217E+09          570.857971E+06           983.35376E+06              1.4115504E-03           -2.28433275E-03          -7.40581131E-06           5.09614801E-03           1.3679837E-03          -60.8319664E-03          -51.2707062E-06           62.1999702E-03           -1.3679837E-03          -63.1163063E-03          -58.6793747E-06           67.2961044E-03            0.                     576.368347E+06             1.42015827E+15          26.2592697E-06           40.7491531E-03 
                  55.E+03                  24.1508331               24.6350746              484.241241E-03            72.414093E-03           447.980927E-03             8.95084572E+06        -586.257996E+03             1.14873779E+09         573.067566E+06           987.101868E+06             1.4111799E-03           -2.29097557E-03          -7.62146378E-06           5.11763859E-03           1.37578309E-03         -62.0513649E-03          -53.6844597E-06           63.4271431E-03           -1.37578309E-03         -64.3423386E-03          -61.2997665E-06           68.5447922E-03            0.                     578.522095E+06             1.4483819E+15           26.2374554E-06           40.7166862E-03 
                  56.E+03                  24.1312733               24.6245689              493.291992E-03            73.8250122E-03          448.427887E-03             8.93805027E+06        -602.615479E+03             1.15298772E+09         575.24231E+06            990.793091E+06             1.41090643E-03          -2.29750252E-03          -7.8341403E-06            5.13881731E-03           1.38347507E-03         -63.2705688E-03          -56.2184715E-06           64.6540527E-03           -1.38347507E-03         -65.5680695E-03          -64.0539246E-06           69.7928619E-03            0.                     580.6427E+06               1.47660005E+15          26.2162151E-06           40.6850586E-03 
                  57.E+03                  24.1122532               24.6145916              502.33609E-03             75.2355194E-03          448.862762E-03             8.92483807E+06        -618.825012E+03             1.15717328E+09         577.383301E+06           994.429016E+06             1.41051865E-03          -2.30391765E-03          -8.04448795E-06           5.15969467E-03           1.39106214E-03         -64.489502E-03           -58.870533E-06            65.8805542E-03           -1.39106214E-03         -66.7934036E-03          -66.9168091E-06           71.0402527E-03            0.                     582.730957E+06             1.50481033E+15          26.1955452E-06           40.6542854E-03 
                  58.E+03                  24.0937424               24.6051197              511.375183E-03            76.6458282E-03          449.285767E-03             8.91147709E+06        -635.30603E+03              1.16129732E+09         579.491882E+06           998.011902E+06             1.41031718E-03          -2.31022191E-03          -8.25876427E-06           5.18028736E-03           1.39854991E-03         -65.7082901E-03          -61.651577E-06            67.1068497E-03           -1.39854991E-03         -68.0185013E-03          -69.9083328E-06           72.2871094E-03            0.                     584.789368E+06             1.53301668E+15          26.1754322E-06           40.6243439E-03 
                  59.E+03                  24.0757408               24.5961475              520.409851E-03            78.056015E-03           449.697327E-03             8.89791203E+06        -651.878479E+03             1.16536283E+09         581.568848E+06             1.001544E+09             1.41018736E-03          -2.31642032E-03          -8.47430801E-06           5.20059919E-03           1.40594089E-03         -66.9270325E-03          -64.5545044E-06           68.3329544E-03           -1.40594089E-03         -69.2434464E-03          -73.027565E-06            73.5335693E-03            0.                     586.817749E+06             1.56122053E+15          26.1558781E-06           40.5952225E-03 
                  60.E+03                  24.058218                24.5876579              529.441711E-03            79.4663086E-03          450.097778E-03             8.88404751E+06        -668.384521E+03             1.16937101E+09         583.615845E+06             1.00502694E+09           1.41027677E-03          -2.32251787E-03          -8.68881035E-06           5.22064686E-03           1.41323984E-03         -68.145874E-03           -67.5792084E-06           69.5591278E-03           -1.41323984E-03         -70.4683914E-03          -76.2689209E-06           74.7797852E-03            0.                     588.818115E+06             1.58942616E+15          26.1368427E-06           40.5668793E-03 
                  61.E+03                  24.0411739               24.5796413              538.471619E-03            80.8766937E-03          450.487244E-03             8.86981106E+06        -684.606018E+03             1.17332447E+09         585.634216E+06             1.00846291E+09           1.41039383E-03          -2.32851982E-03          -8.90009689E-06           5.24043608E-03           1.42045021E-03         -69.3648682E-03          -70.7259216E-06           70.7853394E-03           -1.42045021E-03         -71.6934052E-03          -79.626915E-06            76.0257721E-03            0.                     590.789856E+06             1.61763394E+15          26.1183224E-06           40.5392952E-03 
                  62.E+03                  24.0245838               24.5720787              547.498901E-03            82.2871552E-03          450.866577E-03             8.85510349E+06        -700.505493E+03             1.17722416E+09         587.624573E+06             1.01185238E+09           1.41045213E-03          -2.33442879E-03          -9.10682106E-06           5.25997019E-03           1.42757297E-03         -70.583992E-03           -73.9931183E-06           72.0115433E-03           -1.42757297E-03         -72.918396E-03           -83.0949249E-06           77.2715073E-03            0.                     592.733948E+06             1.64584315E+15          26.1002922E-06           40.5124512E-03 
                  63.E+03                  24.0084381               24.5649624              556.523987E-03            83.6976547E-03          451.235626E-03             8.84025192E+06        -716.622986E+03             1.18107224E+09         589.587463E+06             1.01519763E+09           1.41051507E-03          -2.3402462E-03           -9.31630993E-06           5.27926111E-03           1.4346112E-03          -71.803154E-03           -77.3838272E-06           73.2377701E-03           -1.4346112E-03          -74.1434174E-03          -86.6977463E-06           78.5170517E-03            0.                     594.653381E+06             1.67405319E+15          26.0827579E-06           40.4863281E-03 
                  64.E+03                  23.9927177               24.5582657              565.547485E-03            85.108284E-03           451.59491E-03              8.82489204E+06        -732.257996E+03             1.18487012E+09         591.524536E+06             1.01849973E+09           1.41061068E-03          -2.34598017E-03          -9.51966667E-06           5.29831409E-03           1.44156671E-03         -73.0224991E-03          -80.891304E-06            74.4640427E-03           -1.44156671E-03         -75.3684616E-03          -90.4109344E-06           79.7623749E-03            0.                     596.545776E+06             1.70226526E+15          26.0656853E-06           40.4608994E-03 
                  65.E+03                  23.9774132               24.5519867              574.568909E-03            86.5189209E-03          451.944702E-03             8.80935192E+06        -748.110474E+03             1.18861866E+09         593.435547E+06             1.02175927E+09           1.41066074E-03          -2.35162687E-03          -9.72530746E-06           5.31713486E-03           1.44844222E-03         -74.2418823E-03          -84.5192642E-06           75.6903458E-03           -1.44844222E-03         -76.5935211E-03          -94.2455368E-06           81.0074768E-03            0.                     598.414368E+06             1.73047864E+15          26.0490513E-06           40.4361267E-03 
                  66.E+03                  23.9625225               24.5461025              583.588928E-03            87.9297104E-03          452.285278E-03             8.79347515E+06        -763.79303E+03              1.19231999E+09         595.32196E+06              1.02497828E+09           1.41077399E-03          -2.3571949E-03           -9.92928791E-06           5.33572817E-03           1.45523977E-03         -75.4614334E-03          -88.2657471E-06           76.9166794E-03           -1.45523977E-03         -77.8186111E-03          -98.1957397E-06           82.2523804E-03            0.                     600.258423E+06             1.75869381E+15          26.0328674E-06           40.4120178E-03 
                  67.E+03                  23.9480019               24.5406113              592.608887E-03            89.3407516E-03          452.617004E-03             8.77705383E+06        -778.890015E+03             1.1959753E+09          597.184631E+06             1.02815795E+09           1.41104114E-03          -2.36268806E-03         -10.1256294E-06            5.35410309E-03           1.46196103E-03         -76.6812134E-03          -92.1294556E-06           78.1431808E-03           -1.46196103E-03         -79.0439072E-03         -102.255142E-06            83.4972763E-03            0.                     602.078979E+06             1.78691518E+15          26.0170994E-06           40.3885231E-03 
                  68.E+03                  23.9338684               24.5354958              601.628418E-03            90.7519836E-03          452.940033E-03             8.7604332E+06         -794.223022E+03             1.19958675E+09         599.024231E+06             1.03129959E+09           1.41124284E-03          -2.36810684E-03         -10.3248596E-06            5.37226343E-03           1.4686079E-03          -77.9012604E-03          -96.1156311E-06           79.3698349E-03           -1.4686079E-03          -80.2693481E-03         -106.437012E-06            84.7420959E-03            0.                     603.87738E+06              1.81513977E+15          26.0017471E-06           40.3656464E-03 
                  69.E+03                  23.9200935               24.5307465              610.646729E-03            92.1633148E-03          453.254852E-03             8.74353409E+06        -809.565002E+03             1.20315397E+09         600.841003E+06             1.03440332E+09           1.41134119E-03          -2.37345386E-03         -10.5241928E-06            5.39021349E-03           1.47518146E-03         -79.1213837E-03         -100.211937E-06            80.5965576E-03           -1.47518146E-03         -81.4948273E-03         -110.742867E-06            85.9867554E-03            0.                     605.653381E+06             1.84336662E+15          25.9867821E-06           40.3433609E-03 
                  70.E+03                  23.9066753               24.5263462              619.664429E-03            93.5748215E-03          453.561493E-03             8.72630978E+06        -824.802979E+03             1.20667875E+09         602.635925E+06             1.03747058E+09           1.41147995E-03          -2.37873101E-03         -10.7225056E-06            5.40795946E-03           1.48168278E-03         -80.3416824E-03         -104.436768E-06            81.8233414E-03           -1.48168278E-03         -82.7203827E-03         -115.157227E-06            87.2313156E-03            0.                     607.408081E+06             1.87159669E+15          25.9722118E-06           40.3216476E-03 
                  71.E+03                  23.8936119               24.5222912              628.681763E-03            94.986412E-03           453.860229E-03             8.70870018E+06        -839.757019E+03             1.21016216E+09         604.409668E+06             1.04050231E+09           1.41161215E-03          -2.38394308E-03         -10.9168615E-06            5.42550516E-03           1.48811352E-03         -81.5621185E-03         -108.772766E-06            83.0502167E-03           -1.48811352E-03         -83.9460678E-03         -119.686592E-06            88.4757156E-03            0.                     609.141113E+06             1.89982843E+15          25.9580154E-06           40.3004913E-03 
                  72.E+03                  23.8808784               24.5185699              637.698608E-03            96.3981628E-03          454.151215E-03             8.69078445E+06        -854.445984E+03             1.21360552E+09         606.162292E+06             1.04349959E+09           1.41172493E-03          -2.38908958E-03         -11.1078691E-06            5.4428544E-03            1.4944756E-03          -82.7826767E-03         -113.218903E-06            84.2771454E-03           -1.4944756E-03          -85.1717911E-03         -124.324814E-06            89.7200241E-03            0.                     610.854492E+06             1.92806304E+15          25.9441833E-06           40.2798843E-03 
                  73.E+03                  23.8684845               24.5152016              646.715332E-03            97.8099899E-03          454.434601E-03             8.67274189E+06        -869.197998E+03             1.21700943E+09         607.894226E+06             1.04646301E+09           1.41183853E-03          -2.39416981E-03         -11.2996788E-06            5.46001863E-03           1.50076962E-03         -84.0033722E-03         -117.786346E-06            85.5041351E-03           -1.50076962E-03         -86.3975525E-03         -129.087234E-06            90.9641647E-03            0.                     612.548889E+06             1.95629966E+15          25.9307117E-06           40.2598076E-03 
                  74.E+03                  23.8564034               24.5121326              655.731384E-03            99.2218857E-03          454.710693E-03             8.65431404E+06        -883.593018E+03             1.2203753E+09          609.606628E+06             1.04939377E+09           1.41189897E-03          -2.39919162E-03         -11.4867506E-06            5.47699261E-03           1.5069977E-03          -85.2241516E-03         -122.463562E-06            86.7311707E-03           -1.5069977E-03          -87.6233597E-03         -133.949448E-06            92.2081604E-03            0.                     614.222351E+06             1.98453748E+15          25.9175797E-06           40.2402496E-03 
                  75.E+03                  23.8446312               24.5093727              664.747009E-03           100.633827E-03           454.979828E-03             8.63549042E+06        -897.609009E+03             1.22370279E+09         611.299561E+06             1.05229163E+09           1.41193438E-03          -2.40415573E-03         -11.6689339E-06            5.49378347E-03           1.51316011E-03         -86.445015E-03          -127.256958E-06            87.9581833E-03           -1.51316011E-03         -88.8491898E-03         -138.925049E-06            93.4519577E-03            0.                     615.87677E+06              2.01277637E+15          25.9047947E-06           40.2211914E-03 
                  76.E+03                  23.8331604               24.506916               673.762329E-03           102.045853E-03           455.242096E-03             8.61634922E+06        -911.478027E+03             1.22699451E+09         612.973572E+06             1.05515873E+09           1.41201305E-03          -2.40906358E-03         -11.8491077E-06            5.5103941E-03            1.51925838E-03         -87.6659698E-03         -132.153625E-06            89.1852188E-03           -1.51925838E-03         -90.0750198E-03         -144.004822E-06            94.6956329E-03            0.                     617.512817E+06             2.04101658E+15          25.8923359E-06           40.2026215E-03 
                  77.E+03                  23.8219795               24.5047493              682.777405E-03           103.45787E-03            455.49765E-03              8.59689999E+06        -925.101013E+03             1.23024988E+09         614.629272E+06             1.05799448E+09           1.4120574E-03           -2.41391754E-03         -12.0264301E-06            5.52682972E-03           1.52529287E-03         -88.887001E-03          -137.166595E-06            90.4122696E-03           -1.52529287E-03         -91.3009109E-03         -149.19812E-06             95.9391098E-03            0.                     619.130554E+06             2.06925774E+15          25.8801842E-06           40.1845207E-03 
                  78.E+03                  23.8110733               24.5028648              691.791748E-03           104.869934E-03           455.746735E-03             8.57723236E+06        -938.723999E+03             1.2334708E+09          616.266785E+06             1.06080091E+09           1.41206372E-03          -2.41871762E-03         -12.2034979E-06            5.54309082E-03           1.53126454E-03         -90.1080322E-03         -142.294098E-06            91.6393051E-03           -1.53126454E-03         -92.5267639E-03         -154.497345E-06            97.1824112E-03            0.                     620.731079E+06             2.09749937E+15          25.8683472E-06           40.1668701E-03 
                  79.E+03                  23.8004513               24.5012627              700.806213E-03           106.282059E-03           455.989471E-03             8.55723286E+06        -952.104004E+03             1.2366575E+09          617.887146E+06             1.06357777E+09           1.41211104E-03          -2.42346883E-03         -12.3774662E-06            5.5591836E-03            1.53717518E-03         -91.3291855E-03         -147.518936E-06            92.8663483E-03           -1.53717518E-03         -93.7526474E-03         -159.897827E-06            98.4255524E-03            0.                     622.313477E+06             2.12574148E+15          25.8568115E-06           40.1496811E-03 
                  80.E+03                  23.7901077               24.4999332              709.820007E-03           107.694092E-03           456.225983E-03             8.5369997E+06         -965.320984E+03             1.23981059E+09         619.489868E+06             1.06632578E+09           1.41201806E-03          -2.42816901E-03         -12.5492373E-06            5.57510853E-03           1.54302406E-03         -92.5502472E-03         -152.865082E-06            94.0932541E-03           -1.54302406E-03         -94.9784164E-03         -165.405914E-06            99.6683502E-03            0.                     623.8797E+06               2.15398145E+15          25.8455658E-06           40.1329231E-03 
                  81.E+03                  23.7800255               24.4988594              718.833496E-03           109.106094E-03           456.456451E-03             8.5165081E+06         -978.379028E+03             1.24293101E+09         621.075928E+06             1.06904578E+09           1.41200554E-03          -2.43282294E-03         -12.7190437E-06            5.59087467E-03           1.54881346E-03         -93.7713394E-03         -158.308533E-06            95.3201294E-03           -1.54881346E-03         -96.2041626E-03         -171.026917E-06           100.911003E-03             0.                     625.429321E+06             2.18222189E+15          25.8346081E-06           40.116581E-03  
                  82.E+03                  23.7701988               24.4980488              727.846802E-03           110.518044E-03           456.681061E-03             8.49571228E+06        -991.187012E+03             1.2460196E+09          622.645508E+06             1.07173836E+09           1.4119482E-03           -2.43743038E-03         -12.8854666E-06            5.60647631E-03           1.55454397E-03         -94.9924164E-03         -163.86319E-06             96.5469513E-03           -1.55454397E-03         -97.4298401E-03         -176.745941E-06           102.153412E-03             0.                     626.962158E+06             2.2104609E+15           25.8239422E-06           40.1006851E-03 
                  83.E+03                  23.760622                24.4974861              736.85907E-03            111.929863E-03           456.899902E-03             8.47469616E+06          -1.00385499E+06           1.2490772E+09          624.198975E+06             1.07440448E+09           1.41181338E-03          -2.44199324E-03         -13.0500259E-06            5.62192297E-03           1.56021559E-03         -96.2133865E-03         -169.527954E-06            97.7736282E-03           -1.56021559E-03         -98.6553802E-03         -182.570435E-06           103.395508E-03             0.                     628.479553E+06             2.23869729E+15          25.8135338E-06           40.0851746E-03 
                  84.E+03                  23.7512989               24.4971695              745.870117E-03           113.341454E-03           457.113159E-03             8.45351601E+06          -1.01650703E+06           1.25210309E+09         625.73645E+06              1.07704318E+09           1.4115994E-03           -2.44650936E-03         -13.2141657E-06            5.63721323E-03           1.56582868E-03         -97.4341812E-03         -175.281433E-06            99.0000458E-03           -1.56582868E-03         -99.880722E-03          -188.497589E-06           104.63726E-03              0.                     629.981567E+06             2.26692939E+15          25.8034058E-06           40.0700722E-03 
                  85.E+03                  23.7422142               24.4970932              754.881531E-03           114.753036E-03           457.320709E-03             8.43204021E+06          -1.02881706E+06           1.25509965E+09         627.258728E+06             1.07965672E+09           1.41159332E-03          -2.45098782E-03         -13.3747025E-06            5.65235329E-03           1.57138586E-03         -98.6550827E-03         -181.151321E-06           100.226448E-03            -1.57138586E-03        -101.106056E-03          -194.531174E-06           105.878792E-03             0.                     631.467773E+06             2.29516053E+15          25.7935238E-06           40.0553551E-03 
                  86.E+03                  23.7333546               24.4972496              763.892395E-03           116.164505E-03           457.523132E-03             8.41045189E+06          -1.04117E+06              1.25806725E+09         628.765564E+06             1.08224523E+09           1.41145766E-03          -2.45542169E-03         -13.5353613E-06            5.66734695E-03           1.57688737E-03         -99.8757935E-03         -187.122955E-06           101.452713E-03            -1.57688737E-03        -102.331238E-03          -200.661835E-06           107.120041E-03             0.                     632.940247E+06             2.32338953E+15          25.783905E-06            40.0410156E-03 
                  87.E+03                  23.7247391               24.4976387              772.902405E-03           117.575737E-03           457.720215E-03             8.38861275E+06          -1.05325699E+06           1.26100504E+09         630.257812E+06             1.08480835E+09           1.41121411E-03          -2.4598155E-03          -13.6923695E-06            5.6821909E-03            1.58233321E-03        -101.096375E-03          -193.202164E-06           102.678726E-03            -1.58233321E-03        -103.556175E-03          -206.886566E-06           108.360924E-03             0.                     634.397278E+06             2.351614E+15            25.7745419E-06           40.0270615E-03 
                  88.E+03                  23.7163391               24.498251               781.911743E-03           118.986763E-03           457.91214E-03              8.36658382E+06          -1.06524599E+06           1.26391542E+09         631.735168E+06             1.08734775E+09           1.41105568E-03          -2.46417189E-03         -13.8481197E-06            5.69689512E-03           1.58772421E-03        -102.316849E-03          -199.37381E-06            103.904564E-03            -1.58772421E-03        -104.781013E-03          -213.223282E-06           109.601471E-03             0.                     635.840088E+06             2.37983537E+15          25.7654247E-06           40.0134468E-03 
                  89.E+03                  23.7081528               24.4990788              790.920349E-03           120.397598E-03           458.099091E-03             8.34432793E+06          -1.07703006E+06           1.26679766E+09         633.198547E+06             1.08986282E+09           1.41084123E-03          -2.46849084E-03         -14.0014305E-06            5.71145535E-03           1.59306192E-03        -103.53714E-03           -205.656052E-06           105.130203E-03            -1.59306192E-03        -106.005623E-03          -219.657776E-06           110.841644E-03             0.                     637.268921E+06             2.40805244E+15          25.7565365E-06           40.0001984E-03 
                  90.E+03                  23.7001972               24.5001221              799.928284E-03           121.808197E-03           458.28125E-03              8.32194042E+06          -1.08881795E+06           1.26965261E+09         634.647949E+06             1.09235477E+09           1.41058075E-03          -2.4727726E-03          -14.1545687E-06            5.72587633E-03           1.59834599E-03        -104.757248E-03          -212.034912E-06           106.355576E-03            -1.59834599E-03        -107.230019E-03          -226.191711E-06           112.081467E-03             0.                     638.684143E+06             2.4362638E+15           25.7478828E-06           39.9873009E-03 
                  91.E+03                  23.6924381               24.5013676              808.93457E-03            123.218452E-03           458.458557E-03             8.29941177E+06          -1.10058606E+06           1.27248073E+09         636.083435E+06             1.09482324E+09           1.41025519E-03          -2.47701907E-03         -14.3078794E-06            5.74016094E-03           1.60357726E-03        -105.977089E-03          -218.517151E-06           107.580666E-03            -1.60357726E-03        -108.454109E-03          -232.823654E-06           113.320816E-03             0.                     640.085754E+06             2.46446919E+15          25.7394505E-06           39.9747391E-03 
                  92.E+03                  23.6848793               24.5028191              817.941528E-03           124.628593E-03           458.631256E-03             8.27664375E+06          -1.11221993E+06           1.27528346E+09         637.505737E+06             1.09727013E+09           1.41016972E-03          -2.48123288E-03         -14.4587755E-06            5.75431061E-03           1.60875714E-03        -107.196892E-03          -225.091812E-06           108.805626E-03            -1.60875714E-03        -109.678108E-03          -239.553864E-06           114.559952E-03             0.                     641.473938E+06             2.49267292E+15          25.7312431E-06           39.9624901E-03 
                  93.E+03                  23.6775188               24.5044746              826.946899E-03           126.038475E-03           458.7995E-03               8.25367165E+06          -1.12359297E+06           1.27806008E+09         638.914917E+06             1.09969449E+09           1.4098568E-03           -2.48541379E-03         -14.6066093E-06            5.76832867E-03           1.6138854E-03         -108.416412E-03          -231.777786E-06           110.030296E-03            -1.6138854E-03         -110.901833E-03          -246.380692E-06           115.79863E-03              0.                     642.849243E+06             2.52086949E+15          25.7232533E-06           39.9505653E-03 
                  94.E+03                  23.6703644               24.5063171              835.951233E-03           127.447906E-03           458.963013E-03             8.23056412E+06          -1.13487005E+06           1.28081155E+09         640.31134E+06              1.10209727E+09           1.40943325E-03          -2.4895618E-03          -14.7534447E-06            5.78221273E-03           1.61896253E-03        -109.63562E-03           -238.553391E-06           111.25457E-03             -1.61896253E-03        -112.12516E-03           -253.308563E-06           117.036781E-03             0.                     644.212097E+06             2.5490582E+15           25.7154751E-06           39.9389763E-03 
                  95.E+03                  23.6634026               24.5083656              844.955078E-03           128.857086E-03           459.121948E-03             8.20740032E+06          -1.14612901E+06           1.2835381E+09          641.69458E+06              1.1044786E+09            1.40916562E-03          -2.49367666E-03         -14.8998804E-06            5.7959733E-03            1.62398958E-03        -110.854599E-03          -245.431442E-06           112.478607E-03            -1.62398958E-03        -113.348289E-03          -260.32608E-06            118.274597E-03             0.                     645.563232E+06             2.57724094E+15          25.7079163E-06           39.9277115E-03 
                  96.E+03                  23.6566391               24.5105953              853.957642E-03           130.265869E-03           459.276794E-03             8.18410015E+06          -1.15728796E+06           1.2862407E+09          643.065369E+06             1.10683906E+09           1.40880549E-03          -2.49776053E-03         -15.0451078E-06            5.80960608E-03           1.62896764E-03        -112.073334E-03          -252.401474E-06           113.702278E-03            -1.62896764E-03        -114.571083E-03          -267.446289E-06           119.511894E-03             0.                     646.901245E+06             2.60541797E+15          25.7005615E-06           39.9167404E-03 
                  97.E+03                  23.6500473               24.5130005              862.9599E-03             131.674408E-03           459.427368E-03             8.16064835E+06          -1.16833103E+06           1.28891921E+09         644.423828E+06             1.1091789E+09            1.4085108E-03           -2.5018146E-03          -15.1883068E-06            5.82311773E-03           1.63389647E-03        -113.291779E-03          -259.478577E-06           114.92569E-03             -1.63389647E-03        -115.793594E-03          -274.664246E-06           120.748795E-03             0.                     648.227539E+06             2.63358712E+15          25.6934032E-06           39.9060707E-03 
                  98.E+03                  23.6436405               24.5155926              871.960632E-03           133.082443E-03           459.573975E-03             8.13707161E+06          -1.17925692E+06           1.29157472E+09         645.770508E+06             1.11149907E+09           1.40806675E-03          -2.50583935E-03         -15.3303041E-06            5.83650494E-03           1.63877749E-03        -114.509895E-03          -266.639984E-06           116.148674E-03            -1.63877749E-03        -117.015732E-03          -281.978149E-06           121.985176E-03             0.                     649.54187E+06              2.66174841E+15          25.6864376E-06           39.8956833E-03 
                  99.E+03                  23.6374035               24.518364               880.959167E-03           134.490021E-03           459.716278E-03             8.11335182E+06          -1.18998802E+06           1.2942065E+09          647.10498E+06              1.11379862E+09           1.40755117E-03          -2.50983548E-03         -15.4698496E-06            5.84977102E-03           1.64361E-03           -115.727562E-03          -273.906158E-06           117.371193E-03            -1.64361E-03           -118.237419E-03          -289.379852E-06           123.220947E-03             0.                     650.844421E+06             2.68990064E+15          25.6796703E-06           39.8855896E-03 
                 100.E+03                  23.6313496               24.5213051              889.958374E-03           135.897339E-03           459.854828E-03             8.08943176E+06          -1.20051694E+06           1.29681623E+09         648.42804E+06              1.11607933E+09           1.40732789E-03          -2.51380539E-03         -15.6067905E-06            5.86291981E-03           1.64839625E-03        -116.945107E-03          -281.264771E-06           118.593468E-03            -1.64839625E-03        -119.4589E-03            -296.875366E-06           124.456421E-03             0.                     652.135925E+06             2.71804667E+15          25.67309E-06             39.8757744E-03 




