
                     X                      Cbar_L                 Cbar_total               Cbar_trap                   PEEQ                  PSI_Cbar_L                  S_11                     S_12                     S_22                     S_33                   S_Mises                   dPEEQ                eps_elastic_11           eps_elastic_12           eps_elastic_22           eps_elastic_33           eps_plastic_11           eps_plastic_12           eps_plastic_22           eps_plastic_33            eps_total_11             eps_total_12             eps_total_22             eps_total_33          hydrostatic_stress             rho_d                   theta_L                 theta_trap      

                   0.                      23.6313496               24.5213051              889.958374E-03           135.897339E-03           459.854828E-03             8.08943176E+06          -1.20051694E+06           1.29681623E+09         648.42804E+06              1.11607933E+09           1.40732789E-03          -2.51380539E-03         -15.6067905E-06            5.86291981E-03           1.64839625E-03        -116.945107E-03          -281.264771E-06           118.593468E-03            -1.64839625E-03        -119.4589E-03            -296.875366E-06           124.456421E-03             0.                     652.135925E+06             2.71804667E+15          25.67309E-06             39.8757744E-03 
                 224.273651E-06            24.7970676               25.5656548              768.58905E-03            112.081619E-03           433.209869E-03            89.3798447E+06          387.988007E+03             1.33091092E+09         701.19989E+06              1.07523489E+09           1.19609153E-03          -1.9224211E-03            5.04386854E-06           6.14753008E-03           2.05440903E-03         -96.0852509E-03          114.731491E-06            98.1396637E-03           -2.05440903E-03         -98.0076752E-03          119.773674E-06           104.287193E-03             0.                     710.801025E+06             2.24173212E+15          26.9395237E-06           41.7607117E-03 
                 453.330566E-06            25.9627762               26.62006                657.283142E-03            91.7309341E-03          406.565002E-03           171.875961E+06            -1.0758673E+06            1.3659445E+09          756.946167E+06             1.03420401E+09           1.01554441E-03          -1.25781381E-03         -13.9862747E-06            6.50363159E-03           2.54514241E-03         -78.1576157E-03         -343.113556E-06            80.7027512E-03           -2.54514241E-03         -79.4154205E-03         -357.101807E-06            87.2063828E-03            0.                     769.357178E+06             1.83471894E+15          28.2059479E-06           43.6382751E-03 
                 685.524231E-06            26.7958946               27.3542519              558.356384E-03            75.6032257E-03          387.52243E-03            239.259018E+06             5.53971195E+06           1.38905883E+09         805.292297E+06           995.841553E+06           860.340881E-06            -1.66572225E-03          72.0161514E-06            5.80797672E-03           2.01349378E-03         -64.4234848E-03            1.42802858E-03          66.4369736E-03           -2.01349378E-03         -66.0892029E-03            1.50004494E-03          72.244957E-03             0.                     813.687927E+06             1.51216435E+15          29.1110497E-06           44.9756393E-03 
                 921.372314E-06            27.6290073               28.0935764              464.569794E-03            61.0944176E-03          368.479767E-03           306.602936E+06             1.25595605E+06           1.40985453E+09         843.331421E+06           955.604431E+06           718.927307E-06            -1.01201475E-03          16.3274517E-06            6.15912104E-03           2.47672081E-03         -51.5795326E-03          283.147888E-06            54.0562553E-03           -2.47672081E-03         -52.5915565E-03          299.474243E-06            60.2153816E-03            0.                     857.452148E+06             1.22198856E+15          30.0161438E-06           46.3092537E-03 
                   1.15919483E-03          28.2079792               28.6095791              401.598206E-03            51.7761421E-03          355.246155E-03           352.067078E+06             2.18536592E+06           1.42060351E+09         878.704102E+06           925.418945E+06           624.366089E-06            -1.53056896E-03          28.4097614E-06            5.41491795E-03           1.89257228E-03         -43.7913322E-03          426.402527E-06            45.6839104E-03           -1.89257228E-03         -45.3218994E-03          454.812775E-06            51.0988235E-03            0.                     884.892944E+06             1.03562295E+15          30.6451397E-06           47.2338715E-03 
                   1.39922273E-03          28.7869492               29.126194               339.24115E-03             42.8991623E-03          342.012573E-03           406.296112E+06            -2.74743652E+06           1.43723273E+09         908.602051E+06           892.938599E+06           532.940735E-06            -1.03587091E-03         -35.7166405E-06            5.66521835E-03           2.22911835E-03         -35.9042435E-03         -408.881165E-06            38.1333542E-03           -2.22911835E-03         -36.9401016E-03         -444.598267E-06            43.7985764E-03            0.                     919.718079E+06           858.083008E+12            31.274128E-06            48.1566925E-03 
                   1.64066255E-03          29.1710587               29.4637127              292.652954E-03            36.5420952E-03          333.232941E-03           444.413177E+06          -181.167999E+03             1.44485283E+09         937.981689E+06           866.431702E+06           464.434326E-06            -1.36540639E-03          -2.35515451E-06           5.13745022E-03           1.84278858E-03         -30.5993557E-03          -29.2824116E-06           32.4421501E-03           -1.84278858E-03         -31.9647636E-03          -31.6372585E-06           37.5795898E-03            0.                     942.524353E+06           730.941956E+12            31.691433E-06            48.7679405E-03 
                   1.88349557E-03          29.5551643               29.8017502              246.587189E-03            30.4091434E-03          324.453308E-03           485.995758E+06           814.036316E+03             1.45273972E+09         958.887939E+06           837.291626E+06           397.270569E-06            -1.07565868E-03          10.5824318E-06            5.20817757E-03           1.99814045E-03         -25.187027E-03           126.855316E-06            27.1851635E-03           -1.99814045E-03         -26.2626858E-03          137.437836E-06            32.3933487E-03            0.                     966.556824E+06           608.282837E+12            32.1087189E-06           49.3784027E-03 
                   2.12747979E-03          29.7398033               29.951355               211.552536E-03            25.9334717E-03          320.233093E-03           515.622498E+06           762.612E+03                1.45447886E+09         975.669861E+06           813.128601E+06           346.17099E-06             -1.07547033E-03           9.9139576E-06            5.0270977E-03            1.9148376E-03          -21.345005E-03            74.7294464E-06           23.2598381E-03           -1.9148376E-03          -22.4204693E-03           84.6433716E-06           28.2869377E-03            0.                     981.975952E+06           518.76947E+12             32.3093071E-06           49.6715546E-03 
                   2.37241006E-03          29.9244328               30.1040459              179.61351E-03             21.8884659E-03          316.012787E-03           547.895935E+06           -31.4960003E+03            1.45829284E+09         989.586548E+06           788.542603E+06           299.025909E-06          -860.264343E-06          -409.418121E-09             5.0573163E-03            2.01072454E-03         -17.7736053E-03          -16.8381958E-06           19.7843304E-03           -2.01072454E-03         -18.6338673E-03          -17.2476864E-06           24.8416443E-03            0.                     999.014099E+06           437.869415E+12            32.5098991E-06           49.9645386E-03 
                   2.61811924E-03          30.0041332               30.158432               154.294846E-03            18.7547131E-03          314.191223E-03           571.832764E+06            24.6989994E+03            1.45751238E+09           1.00097561E+09         767.143311E+06           261.30899E-06           -845.711914E-06           321.117096E-09             4.91120434E-03           1.94371676E-03         -15.0874205E-03           -4.18006659E-06          17.0311394E-03           -1.94371676E-03         -15.9331341E-03           -3.85893512E-06          21.9423447E-03            0.                       1.01008177E+09         375.194244E+12            32.5964813E-06           50.0909424E-03 
                   2.86450601E-03          30.0838318               30.2148056              130.977264E-03            15.8796797E-03          312.369507E-03           598.626465E+06          -217.627945E+03             1.45877373E+09           1.00912452E+09         745.166565E+06           226.194748E-06          -661.521667E-06            -2.82917809E-06           4.92943525E-03           2.00671601E-03         -12.5460682E-03           -9.28616619E-06          14.5527821E-03           -2.00671601E-03         -13.2075882E-03          -12.1154585E-06           19.4822197E-03            0.                       1.0224427E+09          317.693604E+12            32.6830635E-06           50.2173233E-03 
                   3.11146688E-03          30.0714931               30.1837788              112.286606E-03            13.6181545E-03          312.651642E-03           618.143494E+06           118.299004E+03             1.45589972E+09           1.01485431E+09         725.856689E+06           197.404739E-06          -632.82489E-06              1.53788269E-06           4.8125906E-03            1.94579589E-03         -10.6120262E-03            3.88143229E-06          12.5578213E-03           -1.94579589E-03         -11.2448502E-03            5.41933727E-06          17.3704147E-03            0.                       1.02956676E+09         272.463104E+12            32.6696548E-06           50.1977539E-03 
                   3.35891533E-03          30.0591431               30.1542587               95.1164322E-03           11.5395184E-03          312.933685E-03           639.869995E+06           197.9021E+03               1.45439363E+09           1.01608193E+09         706.081238E+06           170.493729E-06          -482.085724E-06             2.57273674E-06           4.81231976E-03           1.96329176E-03          -8.78503132E-03           7.74234486E-06          10.7483234E-03           -1.96329176E-03          -9.26711941E-03          10.3151178E-06           15.5606461E-03            0.                       1.03693831E+09         230.890366E+12            32.6562462E-06           50.1781769E-03 
                   3.60678506E-03          29.9684811               30.0499611               81.4783173E-03            9.91261768E-03         315.006073E-03           654.796448E+06            85.0234985E+03            1.44907975E+09           1.0142976E+09          688.898682E+06           148.668335E-06          -434.834381E-06             1.10531247E-06           4.72800779E-03           1.90192306E-03          -7.4004755E-03          944.419312E-09             9.30239964E-03          -1.90192306E-03          -7.83530998E-03           2.04975367E-06          14.0304079E-03            0.                       1.03932583E+09         198.352356E+12            32.5577469E-06           50.0344086E-03 
                   3.85501242E-03          29.8778076               29.9468765               69.0632019E-03            8.42568111E-03         317.078461E-03           672.626953E+06          -127.00103E+03              1.44581985E+09           1.00829124E+09         671.53894E+06            128.393875E-06          -298.882355E-06            -1.65101433E-06           4.72687292E-03           1.8829366E-03           -6.1062994E-03           -3.55040908E-06           7.98923635E-03          -1.8829366E-03           -6.40518188E-03          -5.20141554E-06          12.7161102E-03            0.                       1.04237187E+09         168.613617E+12            32.4592476E-06           49.8905716E-03 
                   4.10354519E-03          29.7299519               29.7890701               59.1211166E-03            7.24612856E-03         320.458221E-03           683.949524E+06           -48.9454994E+03            1.43852139E+09         999.682007E+06           656.370911E+06           112.013618E-06          -250.057968E-06          -636.308044E-09             4.65465879E-03           1.8022033E-03           -5.12102795E-03          -1.55784798E-06           6.92323017E-03          -1.8022033E-03           -5.37108564E-03          -2.19413781E-06          11.5778904E-03            0.                       1.04064071E+09         145.022552E+12            32.2986107E-06           49.6559258E-03 
                   4.35233498E-03          29.5820847               29.632164                50.0792046E-03            6.16632366E-03         323.837982E-03           698.040588E+06           131.479507E+03             1.43270123E+09         986.265869E+06           641.133606E+06            96.7812119E-06         -128.285172E-06             1.70923519E-06           4.64700985E-03           1.74517906E-03          -4.20270014E-03           2.57238936E-06           5.94787931E-03          -1.74517906E-03          -4.33098507E-03           4.28162479E-06          10.5948896E-03            0.                       1.03907084E+09         123.426468E+12            32.1379623E-06           49.4211502E-03 
                   4.6013484E-03           29.3912964               29.4341354               42.8380089E-03            5.30656004E-03         328.198914E-03           705.92981E+06            -24.0564995E+03            1.42276812E+09         970.362E+06              627.874573E+06            84.5339737E-06          -68.8927078E-06         -312.727936E-09             4.59055567E-03           1.64991629E-03          -3.50440526E-03        -359.130341E-09             5.15432167E-03          -1.64991629E-03          -3.57329798E-03        -671.861938E-09             9.74487782E-03           0.                       1.03296316E+09         106.231201E+12            31.9306927E-06           49.1180534E-03 
                   4.85055161E-03          29.2005043               29.2367935               36.2855339E-03            4.52205133E-03         332.559784E-03           716.783691E+06           -88.7545624E+03            1.41409886E+09         950.580383E+06           614.718994E+06            73.1984787E-06           45.5799446E-06           -1.15381539E-06           4.57812929E-03           1.56525791E-03          -2.86115098E-03          -1.11895812E-06           4.42640877E-03          -1.56525791E-03          -2.81557107E-03          -2.27276731E-06           9.00453758E-03           0.                       1.02721477E+09          90.5410309E+12           31.7234211E-06           48.8147697E-03 
                   5.09991503E-03          28.9905663               29.0215855               31.0171585E-03            3.89142299E-03         337.358459E-03           721.814026E+06           -82.8037491E+03            1.40151596E+09         929.677063E+06           603.25531E+06             64.0932083E-06          104.839455E-06            -1.0764488E-06            4.52290297E-03           1.45594883E-03          -2.37341213E-03        -955.54425E-09              3.82936096E-03          -1.45594883E-03          -2.26857233E-03          -2.03199673E-06           8.35226345E-03           0.                       1.01762033E+09          77.9284592E+12           31.4953442E-06           48.4808159E-03 
                   5.34941626E-03          28.7806206               28.8068752               26.2528248E-03            3.31580257E-03         342.157074E-03           729.390442E+06            72.8784409E+03            1.38941216E+09         905.391357E+06           591.980103E+06            55.6484909E-06          208.613861E-06           947.412659E-09             4.49875641E-03           1.35261846E-03          -1.92753899E-03           1.01046312E-06           3.2801578E-03           -1.35261846E-03          -1.71892512E-03           1.95787871E-06           7.77891254E-03           0.                       1.00809431E+09          66.4160538E+12           31.2672596E-06           48.1466293E-03 
                   5.59903669E-03          28.56954                 28.5919647               22.4250145E-03            2.85156775E-03         346.981934E-03           731.81134E+06            -25.9516258E+03            1.37406754E+09         880.907166E+06           582.206848E+06            48.8842926E-06          270.96759E-06           -337.371582E-09             4.44563293E-03           1.24009049E-03          -1.59025025E-03         -79.4270782E-09            2.83034086E-03          -1.24009049E-03          -1.31928241E-03        -416.799591E-09             7.27597427E-03           0.                     995.561401E+06            57.1313553E+12           31.0379391E-06           47.8103752E-03 
                   5.84875774E-03          28.3584518               28.3774376               18.987812E-03             2.43086028E-03         351.806702E-03           736.408447E+06           -62.7251892E+03            1.35891855E+09         854.243286E+06           572.757019E+06            42.6574821E-06          366.486908E-06          -815.42981E-09              4.41280365E-03           1.13241374E-03          -1.28695107E-03        -362.175354E-09             2.41936469E-03          -1.13241374E-03        -920.464233E-06            -1.17760563E-06           6.83216858E-03           0.                     983.218689E+06            48.7172012E+12           30.8086166E-06           47.4738846E-03 
                   6.09856462E-03          28.168438                28.1846485               16.2088051E-03            2.08772373E-03         356.149963E-03           736.779236E+06           -44.5271873E+03            1.34178686E+09         829.072021E+06           564.547852E+06            37.6493034E-06          422.83197E-06           -578.853821E-09             4.35538197E-03           1.02273488E-03          -1.0578922E-03         -242.939453E-09             2.08062744E-03          -1.02273488E-03        -635.060364E-06          -821.794128E-09             6.43600941E-03           0.                     969.186157E+06            41.8544769E+12           30.6021824E-06           47.1707802E-03 
                   6.34844208E-03          27.9784241               27.9921303               13.708601E-03             1.7763679E-03          360.493103E-03           738.716309E+06            43.6491966E+03            1.32442379E+09         802.234863E+06           556.672852E+06            33.026104E-06           505.325745E-06           567.439514E-09             4.31242561E-03         918.19696E-06           -853.069336E-06           450.278961E-09             1.77126634E-03        -918.19696E-06           -347.743683E-06             1.01771998E-06           6.08369207E-03           0.                     955.138794E+06            35.6273537E+12           30.3957481E-06           46.8674812E-03 
                   6.59838295E-03          27.8184795               27.8301659               11.6898232E-03            1.52236843E-03         364.149109E-03           737.287903E+06           -20.8912811E+03            1.30621958E+09         777.583374E+06           549.892517E+06            29.3108578E-06          556.808411E-06          -271.586731E-09             4.25486422E-03         818.72876E-06           -698.864502E-06           -90.9967651E-09            1.51759315E-03        -818.72876E-06           -142.056122E-06          -362.58371E-09              5.7724576E-03            0.                     940.343811E+06            30.5473671E+12           30.2219849E-06           46.6120377E-03 
                   6.84836864E-03          27.658535                27.6684151                9.88623428E-03           1.29383111E-03         367.804871E-03           736.972534E+06           -31.2947006E+03            1.28792274E+09         752.192993E+06           543.499756E+06            25.9141655E-06          626.261292E-06          -406.830902E-09             4.20743704E-03         725.194214E-06          -563.177063E-06           -67.4415359E-09            1.28837144E-03        -725.194214E-06            63.0842667E-06         -474.271729E-09             5.49580908E-03           0.                     925.709839E+06            25.9766235E+12           30.0482178E-06           46.3564529E-03 
                   7.09840298E-03          27.5352173               27.5436287                8.41271973E-03           1.10496974E-03         370.623566E-03           734.243286E+06           -27.3436241E+03            1.26989853E+09         729.634583E+06           537.974304E+06            23.1577873E-06          668.44342E-06           -355.468719E-09             4.1502018E-03          638.485779E-06          -460.327606E-06          -123.748589E-09             1.09881341E-03        -638.485779E-06           208.115738E-06          -479.214569E-09             5.24901485E-03           0.                     911.241821E+06            22.1993942E+12           29.9142532E-06           46.1593132E-03 
                   7.34847403E-03          27.4118958               27.418993                 7.09688425E-03         935.372864E-06           373.44223E-03            732.133362E+06            25.7661877E+03            1.25169456E+09         706.545837E+06           532.81604E+06             20.649044E-06           724.237183E-06           334.961456E-09             4.10138607E-03         557.918579E-06          -370.312378E-06           162.599014E-09           928.231018E-06          -557.918579E-06           353.924805E-06           497.558136E-09             5.02961779E-03           0.                     896.798035E+06            18.8074608E+12           29.7802734E-06           45.9620895E-03 
                   7.59857512E-03          27.3240452               27.330061                 6.0134697E-03          794.262878E-06           375.450378E-03           728.525146E+06           -19.2229996E+03            1.23463082E+09         686.517029E+06           528.363831E+06            18.6122017E-06          758.029419E-06          -249.90094E-09              4.04771614E-03         484.9758E-06            -301.672241E-06           -78.4039001E-09          786.647888E-06          -484.9758E-06             456.357178E-06          -328.303955E-09             4.83436394E-03           0.                     883.210266E+06            15.9852581E+12           29.6848335E-06           45.8215179E-03 
                   7.84870243E-03          27.2361851               27.24123                  5.0450654E-03          667.611755E-06           377.458557E-03           725.250854E+06             2.07095313E+03           1.21751261E+09         666.284546E+06           524.237976E+06            16.7636642E-06          800.922852E-06            26.9186573E-09            4.0006237E-03          417.642487E-06          -241.8918E-06              47.5918121E-09          659.53418E-06           -417.642487E-06           559.031128E-06            74.5062637E-09            4.6601572E-03            0.                     869.689575E+06            13.4522371E+12           29.5893841E-06           45.680912E-03  
                   8.09885216E-03          27.1782646               27.1825027                4.23737144E-03         561.080383E-06           378.78244E-03            721.085571E+06           -29.2093754E+03            1.20186126E+09         648.85437E+06            520.662659E+06            15.2288322E-06          826.875183E-06          -379.723175E-09             3.95191741E-03         357.372925E-06          -195.697586E-06           -85.9909058E-09          553.070557E-06          -357.372925E-06           631.177612E-06          -465.71405E-09              4.50498819E-03           0.                     857.255554E+06            11.3216085E+12           29.5264568E-06           45.588192E-03  
                   8.34902E-03             27.1203423               27.1238594                3.51490498E-03         465.520325E-06           380.106384E-03           717.065247E+06             9.30400753E+03           1.18623781E+09         631.369629E+06           517.370728E+06            13.8389263E-06          859.094727E-06           120.954834E-09             3.90871525E-03         302.072357E-06          -155.591721E-06            48.772049E-09           457.664124E-06          -302.072357E-06           703.502869E-06           169.726028E-09             4.36637926E-03           0.                     844.887329E+06             9.41040516E+12          29.4635296E-06           45.4954414E-03 
                   8.5991993E-03           27.0866051               27.0895061                2.90203762E-03         383.942169E-06           380.877563E-03           712.706604E+06           -30.493E+03                1.17225611E+09         616.4245E+06             514.492371E+06            12.6857328E-06          878.446167E-06          -396.410522E-09             3.86551785E-03         252.612717E-06          -124.023178E-06           -63.5186577E-09          376.635925E-06          -252.612717E-06           754.422913E-06          -459.931458E-09             4.24215364E-03           0.                     833.784851E+06             7.77884293E+12          29.4268799E-06           45.4414215E-03 
                   8.84939384E-03          27.0528641               27.0552158                2.35215521E-03         310.619568E-06           381.648743E-03           708.371399E+06           533.382812                 1.15834165E+09         601.491089E+06           511.849121E+06            11.617856E-06           902.045715E-06             6.93319178E-09           3.82685351E-03         207.323395E-06           -96.6170044E-06           24.4678516E-09          303.940399E-06          -207.323395E-06           805.428772E-06            31.4028072E-09            4.13079357E-03           0.                     822.747375E+06             6.3123908E+12           29.3902225E-06           45.3873901E-03 
                   9.0996027E-03           27.0357056               27.0375843                1.88064122E-03         247.503738E-06           382.041016E-03           703.971558E+06           -30.0266247E+03            1.14601648E+09         588.73877E+06            509.529602E+06            10.5906649E-06          915.98053E-06           -390.344208E-09             3.78927231E-03         166.966599E-06           -74.7243729E-06          -39.9825249E-09          241.690979E-06          -166.966599E-06           841.256165E-06          -430.331055E-09             4.03096437E-03           0.                     812.903992E+06             5.05007458E+12          29.3715801E-06           45.3598976E-03 
                   9.34981537E-03          27.0185413               27.0200005                1.45746005E-03         190.803741E-06           382.433167E-03           699.512451E+06             5.35543728E+03           1.13375926E+09         575.995117E+06           507.408966E+06             9.64520741E-06         933.022705E-06            69.6145477E-09            3.75562739E-03         130.159988E-06           -55.7353439E-06           25.2939568E-09          185.89534E-06           -130.159988E-06           877.287476E-06            94.9121399E-09            3.94152236E-03           0.                     803.046753E+06             3.91607475E+12          29.352932E-06            45.3324089E-03 
                   9.60003948E-03          27.0146885               27.0157776                1.09177613E-03         141.695892E-06           382.521423E-03           695.20636E+06            -36.371376E+03             1.12309933E+09         565.270813E+06           505.543488E+06             8.99819183E-06         942.023254E-06          -472.826294E-09             3.72332692E-03          97.4416351E-06          -40.366703E-06           -25.2126694E-09          137.80835E-06            -97.4416351E-06          901.656555E-06          -498.042908E-09             3.86113548E-03           0.                     794.516602E+06             2.93391728E+12          29.3487453E-06           45.3262291E-03 
                   9.85026741E-03          27.0108261               27.011591               764.08905E-06             97.6802826E-06          382.609589E-03           690.794006E+06            48.2421875                1.11251557E+09         554.558777E+06           503.847656E+06             8.31021023E-06         953.279724E-06           625.959717E-12             3.69446969E-03          67.7517242E-06          -27.0600891E-06           16.6527061E-09           94.8118134E-06          -67.7517242E-06          926.219727E-06            17.2782383E-09            3.78928113E-03           0.                     786.043274E+06             2.05360603E+12          29.3445473E-06           45.3200493E-03 
                  10.100503E-03            27.014595                27.0150814              486.695038E-06            60.3947487E-06          382.52356E-03            686.447266E+06           -32.4645004E+03            1.10340607E+09         545.630432E+06           502.393127E+06             7.07847929E-06         957.445557E-06          -422.041931E-09             3.66767764E-03          42.1365891E-06          -16.4016113E-06           -9.87830544E-09          58.5382004E-06          -42.1365891E-06          941.043945E-06          -431.917175E-09             3.72621608E-03           0.                     778.491028E+06             1.30789495E+12          29.3486519E-06           45.3260918E-03 
                  10.3507414E-03           27.0183601               27.0186176              254.22731E-06             29.1550026E-06          382.437347E-03           682.144226E+06            29.6115627E+03            1.09420681E+09         536.947815E+06           500.707031E+06             6.93488789E-06         964.255798E-06           384.948181E-09             3.64266181E-03          20.4795799E-06           -7.73064137E-06          10.888916E-09            28.2102184E-06          -20.4795799E-06          956.525085E-06           395.839844E-09             3.67087221E-03           0.                     771.05603E+06            683.100098E+09            29.3527374E-06           45.332119E-03  
                  10.6009808E-03           27.0162773               27.0163193               40.5209694E-06          444.288513E-09           382.485046E-03           677.23877E+06            -44.9742508E+03            1.08668458E+09         529.422913E+06           500.018097E+06           216.735321E-09           961.114197E-06          -584.66687E-09              3.62251377E-03         312.20459E-09           -117.421913E-09             5.01977825E-09         429.626526E-09          -312.20459E-09            960.996765E-06          -579.646484E-09             3.62294316E-03           0.                     764.410706E+06           108.885757E+09            29.3504753E-06           45.3287849E-03 
                  10.8512192E-03           27.0141869               27.0142403               50.7628479E-06            1.82059073E-06         382.532745E-03           672.91687E+06             16.1556873E+03            1.07526922E+09         524.729492E+06           493.427246E+06           446.487488E-09           964.498047E-06           210.025055E-09             3.57978868E-03           1.27944839E-06        -482.009247E-09            -1.12112987E-09           1.76145744E-06          -1.27944839E-06         964.015991E-06           208.905472E-09             3.58155036E-03           0.                     757.614502E+06           136.411819E+09            29.3481998E-06           45.3254356E-03 
                  11.1014585E-03           27.0105896               27.0106239               37.2068405E-06            0.                     382.615051E-03           668.455566E+06           -11.1507502E+03            1.06496894E+09         520.126587E+06           487.892181E+06             0.                     964.13855E-06           -144.960724E-09             3.5414753E-03            0.                       0.                       0.                       0.                       0.                     964.13855E-06           -144.960724E-09             3.5414753E-03            0.                     751.177734E+06            99.9999924E+09           29.3442955E-06           45.3196678E-03 
                  11.3517008E-03           27.0069828               27.007019                37.2021027E-06            0.                     382.697449E-03           664.113403E+06            -8.2862339E+03            1.0546211E+09          515.659973E+06           482.189697E+06             0.                     964.946777E-06          -107.723969E-09             3.50324821E-03           0.                       0.                       0.                       0.                       0.                     964.946777E-06          -107.723969E-09             3.50324821E-03           0.                     744.840088E+06            99.9999847E+09           29.3403778E-06           45.3138962E-03 
                  11.601944E-03            27.0049438               27.0049801               37.1994171E-06            0.                     382.74411E-03            660.252075E+06           -13.9438753E+03            1.04495776E+09         511.654358E+06           476.70343E+06              0.                     965.88501E-06           -181.269577E-09             3.46647239E-03           0.                       0.                       0.                       0.                       0.                     965.88501E-06           -181.269577E-09             3.46647239E-03           0.                     738.954346E+06            99.9999924E+09           29.3381634E-06           45.3106308E-03 
                  11.8521862E-03           27.0029049               27.0029411               37.1967354E-06            0.                     382.790619E-03           656.31366E+06             -8.09125805E+03           1.03546023E+09         507.577148E+06           471.452576E+06             0.                     966.787354E-06          -105.186478E-09             3.4312396E-03            0.                       0.                       0.                       0.                       0.                     966.787354E-06          -105.186478E-09             3.4312396E-03            0.                     733.111816E+06            99.9999847E+09           29.335947E-06            45.3073616E-03 
                  12.1024246E-03           27.0019627               27.001997                37.1954994E-06            0.                     382.812317E-03           652.803223E+06           -15.3817501E+03            1.02661026E+09         503.907532E+06           466.433075E+06             0.                     967.821716E-06          -199.961502E-09             3.3975668E-03            0.                       0.                       0.                       0.                       0.                     967.821716E-06          -199.961502E-09             3.3975668E-03            0.                     727.772461E+06            99.9999924E+09           29.3349209E-06           45.3058472E-03 
                  12.3526678E-03           27.0010128               27.0010529               37.1942482E-06            0.                     382.833832E-03           649.227661E+06           -12.9788675E+03            1.0179112E+09          500.177307E+06           461.623169E+06             0.                     968.827576E-06          -168.723755E-09             3.36526871E-03           0.                       0.                       0.                       0.                       0.                     968.827576E-06          -168.723755E-09             3.36526871E-03           0.                     722.439331E+06            99.9999771E+09           29.333889E-06            45.3043365E-03 
                  12.60291E-03             27.0006161               27.0006561               37.1937256E-06            0.                     382.843018E-03           646.068726E+06           -17.4737492E+03            1.00979984E+09         496.838196E+06           457.001007E+06             0.                     969.998596E-06          -227.157227E-09             3.33425069E-03           0.                       0.                       0.                       0.                       0.                     969.998596E-06          -227.157227E-09             3.33425069E-03           0.                     717.568176E+06            99.9999924E+09           29.3334599E-06           45.3036995E-03 
                  12.8531532E-03           27.0002174               27.0002537               37.1932106E-06            0.                     382.852112E-03           642.845642E+06           -15.5227499E+03            1.00181746E+09         493.434143E+06           452.569397E+06             0.                     971.174255E-06          -201.797791E-09             3.30449176E-03           0.                       0.                       0.                       0.                       0.                     971.174255E-06          -201.797791E-09             3.30449176E-03           0.                     712.698608E+06            99.9999771E+09           29.3330307E-06           45.303051E-03  
                  13.1033955E-03           27.0000572               27.0000916               37.1929932E-06            0.                     382.855896E-03           640.004395E+06           -19.6826248E+03          994.386047E+06           490.390533E+06           448.320282E+06             0.                     972.490234E-06          -255.871796E-09             3.27597141E-03           0.                       0.                       0.                       0.                       0.                     972.490234E-06          -255.871796E-09             3.27597141E-03           0.                     708.25946E+06             99.9999924E+09           29.3328476E-06           45.3027992E-03 
                  13.3536425E-03           26.9998894               26.9999275               37.1927719E-06            0.                     382.859528E-03           637.10498E+06            -18.3084145E+03          987.078003E+06           487.290314E+06           444.248413E+06             0.                     973.79541E-06           -238.008743E-09             3.2486217E-03            0.                       0.                       0.                       0.                       0.                     973.79541E-06           -238.008743E-09             3.2486217E-03            0.                     703.824158E+06            99.9999847E+09           29.332674E-06            45.3025322E-03 
                  13.6038847E-03           26.9999046               26.9999428               37.1927948E-06            0.                     382.859314E-03           634.561829E+06           -21.1254368E+03          980.279114E+06           484.52243E+06            440.344757E+06             0.                     975.256042E-06          -274.633759E-09             3.22241831E-03           0.                       0.                       0.                       0.                       0.                     975.256042E-06          -274.633759E-09             3.22241831E-03           0.                     699.787048E+06            99.9999924E+09           29.3326893E-06           45.3025551E-03 
                  13.8541307E-03           26.9999104               26.9999542               37.1928101E-06            0.                     382.858978E-03           631.968872E+06           -23.1215515E+03          973.614319E+06           481.716675E+06           436.612274E+06             0.                     976.639099E-06          -300.579712E-09             3.19733524E-03           0.                       0.                       0.                       0.                       0.                     976.639099E-06          -300.579712E-09             3.19733524E-03           0.                     695.766113E+06            99.9999847E+09           29.3326988E-06           45.3025703E-03 
                  14.1043739E-03           26.9998398               26.999876                37.1927109E-06            0.                     382.860748E-03           629.694763E+06           -20.1642494E+03          967.41803E+06            479.202179E+06           433.04715E+06              0.                     978.201294E-06          -262.134552E-09             3.17340255E-03           0.                       0.                       0.                       0.                       0.                     978.201294E-06          -262.134552E-09             3.17340255E-03           0.                     692.104248E+06            99.9999924E+09           29.3326168E-06           45.3024559E-03 
                  14.3546162E-03           26.9997597               26.9997959               37.1926003E-06            0.                     382.862579E-03           627.370361E+06           -24.2694149E+03          961.346863E+06           476.644623E+06           429.64801E+06              0.                     979.717285E-06          -315.502716E-09             3.15056419E-03           0.                       0.                       0.                       0.                       0.                     979.717285E-06          -315.502716E-09             3.15056419E-03           0.                     688.453369E+06            99.9999771E+09           29.332531E-06            45.3023224E-03 
                  14.6048632E-03           26.9998112               26.9998512               37.1926727E-06            0.                     382.861389E-03           625.363037E+06           -20.8710632E+03          955.751099E+06           474.401581E+06           426.405304E+06             0.                     981.249878E-06          -271.324097E-09             3.12877202E-03           0.                       0.                       0.                       0.                       0.                     981.249878E-06          -271.324097E-09             3.12877202E-03           0.                     685.171204E+06            99.9999924E+09           29.3325882E-06           45.3024101E-03 
                  14.8551092E-03           26.9998608               26.9999008               37.1927414E-06            0.                     382.860138E-03           623.30011E+06            -23.2972813E+03          950.260254E+06           472.101105E+06           423.320374E+06             0.                     982.793274E-06          -302.863098E-09             3.10803461E-03           0.                       0.                       0.                       0.                       0.                     982.793274E-06          -302.863098E-09             3.10803461E-03           0.                     681.886597E+06            99.9999771E+09           29.3326454E-06           45.3024788E-03 
                  15.1053553E-03           26.999918                26.999958                37.1928101E-06            0.                     382.858948E-03           621.533569E+06           -19.7880001E+03          945.22467E+06            470.094421E+06           420.391846E+06             0.                     984.354858E-06          -257.242371E-09             3.0883472E-03            0.                       0.                       0.                       0.                       0.                     984.354858E-06          -257.242371E-09             3.0883472E-03            0.                     678.950134E+06            99.9999924E+09           29.3327026E-06           45.3025818E-03 
                  15.3556023E-03           26.9999733               27.0000076               37.1928864E-06            0.                     382.857758E-03           619.717041E+06           -26.4264812E+03          940.30719E+06            468.045868E+06           417.619965E+06             0.                     985.863037E-06          -343.542114E-09             3.06969786E-03           0.                       0.                       0.                       0.                       0.                     985.863037E-06          -343.542114E-09             3.06969786E-03           0.                     676.022888E+06            99.9999847E+09           29.3327599E-06           45.3026543E-03 
                  15.6058483E-03           26.9999008               26.9999371               37.1927872E-06            0.                     382.859436E-03           618.170471E+06           -17.9181252E+03          935.82428E+06            466.26712E+06            415.007507E+06             0.                     987.37207E-06           -232.934769E-09             3.05212164E-03           0.                       0.                       0.                       0.                       0.                     987.37207E-06           -232.934769E-09             3.05212164E-03           0.                     673.419922E+06            99.9999924E+09           29.3326817E-06           45.3025475E-03 
                  15.8560982E-03           26.9998245               26.9998589               37.192688E-06             0.                     382.861023E-03           616.571838E+06           -23.8524055E+03          931.445435E+06           464.432373E+06           412.548767E+06             0.                     988.90625E-06           -310.080841E-09             3.03558493E-03           0.                       0.                       0.                       0.                       0.                     988.90625E-06           -310.080841E-09             3.03558493E-03           0.                     670.816284E+06            99.9999771E+09           29.3326015E-06           45.302433E-03  
                  16.1063404E-03           26.9998894               26.9999256               37.1927643E-06            0.                     382.85968E-03            615.247864E+06           -19.8668747E+03          927.516541E+06           462.899902E+06           410.237885E+06             0.                     990.261414E-06          -258.269196E-09             3.02000761E-03           0.                       0.                       0.                       0.                       0.                     990.261414E-06          -258.269196E-09             3.02000761E-03           0.                     668.554138E+06            99.9999924E+09           29.3326702E-06           45.3025322E-03 
                  16.3565865E-03           26.9999504               26.9999828               37.1928558E-06            0.                     382.858246E-03           613.868591E+06           -22.4746475E+03          923.679138E+06           461.301483E+06           408.076233E+06             0.                     991.685669E-06          -292.170441E-09             3.00545526E-03           0.                       0.                       0.                       0.                       0.                     991.685669E-06          -292.170441E-09             3.00545526E-03           0.                     666.282654E+06            99.9999847E+09           29.332737E-06            45.3026276E-03 
                  16.6068382E-03           27.0000687               27.0001068               37.1930084E-06            0.                     382.855591E-03           612.746338E+06           -21.3258743E+03          920.278015E+06           459.979889E+06           406.071259E+06             0.                     992.981995E-06          -277.236725E-09             2.9919374E-03            0.                       0.                       0.                       0.                       0.                     992.981995E-06          -277.236725E-09             2.9919374E-03            0.                     664.333984E+06            99.9999924E+09           29.3328629E-06           45.3028145E-03 
                  16.8570881E-03           27.0001831               27.0002155               37.1931572E-06            0.                     382.852905E-03           611.5672E+06             -27.371336E+03           916.987244E+06           458.616486E+06           404.214752E+06             0.                     994.179199E-06          -355.828308E-09             2.97941041E-03           0.                       0.                       0.                       0.                       0.                     994.179199E-06          -355.828308E-09             2.97941041E-03           0.                     662.389771E+06            99.9999771E+09           29.3329868E-06           45.3029938E-03 
                  17.107338E-03            27.0000782               27.0001202               37.1930313E-06            0.                     382.855286E-03           610.636475E+06           -17.1260319E+03          914.099792E+06           457.496948E+06           402.509583E+06             0.                     995.406982E-06          -222.63884E-09              2.96791935E-03           0.                       0.                       0.                       0.                       0.                     995.406982E-06          -222.63884E-09              2.96791935E-03           0.                     660.743713E+06            99.9999924E+09           29.3328819E-06           45.3028374E-03 
                  17.357584E-03            26.9999771               27.0000134               37.1928902E-06            0.                     382.857605E-03           609.654114E+06           -30.8435307E+03          911.327393E+06           456.340393E+06           400.951996E+06             0.                     996.538879E-06          -400.965271E-09             2.95741677E-03           0.                       0.                       0.                       0.                       0.                     996.538879E-06          -400.965271E-09             2.95741677E-03           0.                     659.106934E+06            99.9999771E+09           29.3327637E-06           45.3026733E-03 
                  17.6078339E-03           26.9999352               26.9999695               37.1928329E-06            0.                     382.858612E-03           608.908447E+06           -19.9281254E+03          908.965759E+06           455.444031E+06           399.542053E+06             0.                     997.518677E-06          -259.065002E-09             2.94789076E-03           0.                       0.                       0.                       0.                       0.                     997.518677E-06          -259.065002E-09             2.94789076E-03           0.                     657.771851E+06            99.9999924E+09           29.3327217E-06           45.3026085E-03 
                  17.8580799E-03           26.9998875               26.9999256               37.1927719E-06            0.                     382.859589E-03           608.113953E+06           -34.6780396E+03          906.720398E+06           454.507782E+06           398.28186E+06              0.                     998.44043E-06           -450.814423E-09             2.93938303E-03           0.                       0.                       0.                       0.                       0.                     998.44043E-06           -450.814423E-09             2.93938303E-03           0.                     656.447021E+06            99.9999847E+09           29.3326721E-06           45.3025246E-03 
                  18.1083298E-03           26.9997711               26.9998112               37.1926193E-06            0.                     382.862305E-03           607.55072E+06            -16.3534374E+03          904.880676E+06           453.820282E+06           397.173553E+06             0.                     999.247803E-06          -212.594147E-09             2.9318924E-03            0.                       0.                       0.                       0.                       0.                     999.247803E-06          -212.594147E-09             2.9318924E-03            0.                     655.416321E+06            99.9999924E+09           29.3325443E-06           45.3023453E-03 
                  18.3585854E-03           26.9996548               26.9996853               37.1924591E-06            0.                     382.865021E-03           606.925049E+06           -31.6898861E+03          903.144958E+06           453.084747E+06           396.21167E+06              0.                     999.962219E-06          -411.968475E-09             2.9253912E-03            0.                       0.                       0.                       0.                       0.                     999.962219E-06          -411.968475E-09             2.9253912E-03            0.                     654.384399E+06            99.9999847E+09           29.3324146E-06           45.3021545E-03 
                  18.6088352E-03           26.9993534               26.9993935               37.19207E-06              0.                     382.871857E-03           606.541077E+06            -9.39760971E+03         901.818115E+06           452.609009E+06           395.393738E+06             0.                       1.00055778E-03        -122.168785E-09             2.91985965E-03           0.                       0.                       0.                       0.                       0.                       1.00055778E-03        -122.168785E-09             2.91985965E-03           0.                     653.65509E+06             99.9999924E+09           29.3320904E-06           45.3016739E-03 
                  18.8590851E-03           26.9990559               26.9990921               37.1916733E-06            0.                     382.878571E-03           606.105347E+06           -27.9464626E+03          900.581116E+06           452.069244E+06           394.718903E+06             0.                       1.00123525E-03        -363.304474E-09             2.91532779E-03           0.                       0.                       0.                       0.                       0.                       1.00123525E-03        -363.304474E-09             2.91532779E-03           0.                     652.918152E+06            99.9999847E+09           29.331768E-06            45.3011932E-03 
                  19.1093349E-03           26.9990234               26.9990578               37.1916313E-06            0.                     382.879547E-03           605.877136E+06           -12.984664E+03           899.777832E+06           451.809448E+06           394.201782E+06             0.                       1.00143981E-03        -168.80072E-09              2.91179347E-03           0.                       0.                       0.                       0.                       0.                       1.00143981E-03        -168.80072E-09              2.91179347E-03           0.                     652.487E+06               99.9999924E+09           29.331728E-06            45.3011398E-03 
                  19.3595848E-03           26.9989777               26.9990158               37.1915741E-06            0.                     382.880402E-03           605.603088E+06           -15.1371088E+03          899.062073E+06           451.47464E+06            393.832611E+06             0.                       1.00183463E-03        -196.782211E-09             2.90931892E-03           0.                       0.                       0.                       0.                       0.                       1.00183463E-03        -196.782211E-09             2.90931892E-03           0.                     652.045959E+06            99.9999771E+09           29.3316784E-06           45.301075E-03  
                  19.6098385E-03           26.9989128               26.9989471               37.1914902E-06            0.                     382.882019E-03           605.549561E+06            -5.2779336E+03          898.762695E+06           451.410248E+06           393.609619E+06             0.                       1.00190544E-03         -68.6131897E-09            2.90779114E-03           0.                       0.                       0.                       0.                       0.                       1.00190544E-03         -68.6131897E-09            2.90779114E-03           0.                     651.906311E+06            99.9999924E+09           29.3316078E-06           45.3009605E-03 
                  19.8600845E-03           26.9988403               26.9988766               37.1913834E-06            0.                     382.883606E-03           605.437744E+06            39.7050781              898.551575E+06           451.271912E+06           393.536438E+06             0.                       1.00207698E-03         516.251953E-12             2.90731835E-03           0.                       0.                       0.                       0.                       0.                       1.00207698E-03         516.251953E-12             2.90731835E-03           0.                     651.753174E+06            99.9999771E+09           29.3315201E-06           45.3008423E-03 




